&CONTROL
   calculation      = 'relax'
   restart_mode     = 'from_scratch'
   nstep            = 1000
   tprnfor          = .true.
   etot_conv_thr    = 0.0001
   forc_conv_thr    = 0.001
/
&SYSTEM
   tot_magnetization = 0
   ecutwfc          = 50
   ecutrho          = 400
   occupations      = 'smearing'
   degauss          = 0.0001
   smearing         = 'gaussian'
   nspin            = 2
   input_dft        = 'pbe'
   ntyp             = 2
   nat              = 41
   ibrav            = 0
/
&ELECTRONS
   electron_maxstep = 100
   scf_must_converge = .false.
   conv_thr         = 1e-06
   mixing_mode      = 'plain'
   mixing_beta      = 0.3
   diagonalization  = 'david'
/
&IONS
   ion_dynamics     = 'bfgs'
   bfgs_ndim        = 1
/
&CELL
/
&FCP
/
&RISM
/
ATOMIC_SPECIES
C  12.011 C.pbe-n-kjpaw_psl.1.0.0.UPF
H  1.008 H.pbe-rrkjus_psl.1.0.0.UPF

K_POINTS gamma

CELL_PARAMETERS angstrom
9.89800000000000 0.00000000000000 0.00000000000000
0.00000000000000 9.89800000000000 0.00000000000000
0.00000000000000 0.00000000000000 9.89800000000000

ATOMIC_POSITIONS angstrom
C  1.0910000000 1.0910000000 1.0910000000  
C  0.2000000000 0.2000000000 0.2000000000  
C  1.9820000000 1.9820000000 0.2000000000  
C  0.2000000000 1.9820000000 1.9820000000  
C  1.9820000000 0.2000000000 1.9820000000  
C  8.5150000000 8.5150000000 8.5150000000  
C  9.4050000000 9.4050000000 9.4050000000  
C  7.6240000000 7.6240000000 9.4060000000  
C  7.6240000000 9.4060000000 7.6240000000  
C  9.4060000000 7.6240000000 7.6240000000  
C  3.5660000000 3.5660000000 8.5150000000  
C  2.6750000000 2.6750000000 9.4060000000  
C  4.4560000000 4.4560000000 9.4050000000  
C  4.4570000000 2.6750000000 7.6240000000  
C  2.6750000000 4.4570000000 7.6240000000  
C  3.5660000000 8.5150000000 3.5660000000  
C  2.6750000000 9.4060000000 2.6750000000  
C  4.4570000000 7.6240000000 2.6750000000  
C  4.4560000000 9.4050000000 4.4560000000  
C  2.6750000000 7.6240000000 4.4570000000  
C  6.0400000000 6.0400000000 1.0910000000  
C  5.1490000000 6.9310000000 1.9820000000  
C  6.9310000000 5.1490000000 1.9820000000  
C  5.1490000000 5.1490000000 0.2000000000  
C  6.9310000000 6.9310000000 0.2000000000  
C  8.5150000000 3.5660000000 3.5660000000  
C  9.4060000000 2.6750000000 2.6750000000  
C  7.6240000000 4.4570000000 2.6750000000  
C  7.6240000000 2.6750000000 4.4570000000  
C  9.4050000000 4.4560000000 4.4560000000  
C  1.0910000000 6.0400000000 6.0400000000  
C  0.2000000000 5.1490000000 5.1490000000  
C  1.9820000000 6.9310000000 5.1490000000  
C  0.2000000000 6.9310000000 6.9310000000  
C  1.9820000000 5.1490000000 6.9310000000  
C  6.0400000000 1.0910000000 6.0400000000  
C  6.9310000000 0.2000000000 6.9310000000  
C  5.1490000000 0.2000000000 5.1490000000  
C  5.1490000000 1.9820000000 6.9310000000  
C  6.9310000000 1.9820000000 5.1490000000  
H  0.5140000000 1.7480000000 0.4280000000  

