1   
      1.000000000000
      6.973148345947        0.000000000000        0.000000000000
      0.000000000000        6.973148345947        0.000000000000
      0.000000000000        0.000000000000       25.165294647217
C
32 
Direct
      0.665111303329       0.738683521748       0.251686692238 
      0.488549768925       0.238513499498       0.531779944897 
      0.488655894995       0.738482773304       0.339288681746 
      0.311932265759       0.738683521748       0.251726835966 
      0.665150046349       0.238434612751       0.725264668465 
      0.488181203604       0.738446950912       0.445291846991 
      0.487700790167       0.238628223538       0.637775182724 
      0.312008261681       0.238434612751       0.725431561470 
      0.488327473402       0.561951339245       0.475364983082 
     -0.011408289894       0.738710820675       0.195268124342 
      0.488437920809       0.738306403160       0.387759387493 
      0.488327473402       0.915123224258       0.475321292877 
     -0.011341376230       0.561906874180       0.001769055380 
      0.488536864519       0.738690733910       0.281759858131 
     -0.011456002481       0.739340364933       0.089272551239 
     -0.011341562495       0.915045797825       0.001628270140 
     -0.011148449965       0.415228515863       0.975323379040 
      0.488379120827       0.238791704178       0.695298850536 
     -0.011091230437       0.238165020943       0.887758314610 
     -0.011146113276       0.061819564551       0.975220084190 
      0.488442242146       0.415222793818       0.501794219017 
      0.988405764103       0.237842351198       0.781767129898 
      0.488088011742       0.238493427634       0.589303672314 
      0.488442242146       0.061819996685       0.501758456230 
      0.811831235886       0.238144934177       0.751709818840 
      0.988454520702       0.738649129868       0.031748883426 
     -0.011225647293       0.238017305732       0.839286804199 
      0.165236696601       0.238140642643       0.751840949059 
      0.811818420887       0.738686442375       0.225252285600 
     -0.010932178237       0.238623917103       0.945278048515 
     -0.011375406757       0.739053547382       0.137744069099 
      0.165215194225       0.738686442375       0.225292816758 
