1   
      1.000000000000
     13.168023109436        0.000000000000        0.000000000000
      0.000000000000       13.168023109436        0.000000000000
      0.000000000000        0.000000000000       13.168023109436
C
80 
Direct
      0.835098803043       0.835098803043       0.835091173649 
      0.769697904587       0.769690275192       0.769690275192 
      0.812809944153       0.948152959347       0.812794744968 
      0.151447176933       0.151524648070       0.835121512413 
      0.217248246074       0.216331630945       0.769477665424 
      0.173692733049       0.038540333509       0.812885820866 
      0.835068345070       0.151485919952       0.151459336281 
      0.769675135612       0.216898173094       0.216860190034 
      0.812802374363       0.038464996964       0.173781603575 
      0.151499584317       0.835106372833       0.151473760605 
      0.216889798641       0.769690275192       0.216879934072 
      0.173784628510       0.948152959347       0.173779323697 
      0.812817573547       0.812809944153       0.948137760162 
      0.812817573547       0.173761844635       0.038450494409 
      0.173785388470       0.812809944153       0.038436524570 
      0.173770189285       0.173833996058       0.948168158531 
      0.948145329952       0.812817573547       0.812809944153 
      0.038410853595       0.812809944153       0.173755005002 
      0.038392700255       0.173849165440       0.812794744968 
      0.948160588741       0.173758804798       0.173774749041 
      0.151447176933       0.151495784521       0.151522368193 
      0.216848790646       0.216893613338       0.216927766800 
      0.038451328874       0.173755005002       0.173755764961 
      0.835083603859       0.835091173649       0.151469200850 
      0.769796609879       0.769546031952       0.216849550605 
      0.948114991188       0.812832713127       0.173756524920 
      0.835045635700       0.151474520564       0.835098803043 
      0.769644737244       0.216873854399       0.769705533981 
      0.948099792004       0.173782348633       0.812787115574 
      0.151488944888       0.835151970387       0.835083603859 
      0.216894373298       0.769743442535       0.769682705402 
      0.038437277079       0.812817573547       0.812817573547 
      0.173808172345       0.173771709204       0.038457557559 
      0.812802374363       0.173772469163       0.948152959347 
      0.173783108592       0.812802374363       0.948145329952 
      0.812794744968       0.812825143337       0.038434851915 
      0.173781603575       0.038445252925       0.173777803779 
      0.173764124513       0.948244094849       0.812832713127 
      0.812764406204       0.948175787926       0.173780843616 
      0.812809944153       0.038447458297       0.812809944153 
      0.335076868534       0.335093587637       0.335136890411 
      0.269654005766       0.269692718983       0.269732981920 
      0.312812328339       0.448126494884       0.312805503607 
      0.651491880417       0.651476681232       0.335102707148 
      0.716978549957       0.716765165329       0.269660830498 
      0.673742711544       0.538483262062       0.312843471766 
      0.335091292858       0.651537418365       0.651482760906 
      0.269698023796       0.716935276985       0.716876029968 
      0.312788039446       0.538520455360       0.673793613911 
      0.651436388493       0.335079908371       0.651495635509 
      0.716841042042       0.269677549601       0.716898798943 
      0.673763990402       0.448146969080       0.673777699471 
      0.312836647034       0.312801688910       0.448158383369 
      0.312800168991       0.673779904842       0.538441479206 
      0.673771619797       0.312802463770       0.538444519043 
      0.673766314983       0.673798203468       0.448163717985 
      0.448181927204       0.312800168991       0.312799423933 
      0.538385272026       0.312805503607       0.673751115799 
      0.538405001163       0.673805773258       0.312803983688 
      0.448146224022       0.673775374889       0.673771619797 
      0.651494920254       0.651471376419       0.651498675346 
      0.716894209385       0.716877579689       0.716892004013 
      0.538436949253       0.673768579960       0.673774659634 
      0.335067003965       0.335152059793       0.651475191116 
      0.269888639450       0.269367694855       0.716767430305 
      0.448089301586       0.312867015600       0.673745751381 
      0.335071563721       0.651466846466       0.335088998079 
      0.269682854414       0.716878294945       0.269685119390 
      0.448115110397       0.673760950565       0.312813103199 
      0.651494145393       0.335128515959       0.335073083639 
      0.716884374619       0.269710928202       0.269664615393 
      0.538472652435       0.312830567360       0.312820672989 
      0.673773109913       0.673767864704       0.538455188274 
      0.312782704830       0.673770070076       0.448150038719 
      0.673792123795       0.312806248665       0.448154598475 
      0.312797129154       0.312860161066       0.538456678391 
      0.673765540123       0.538439989090       0.673776865005 
      0.673784494400       0.448184967041       0.312827527523 
      0.312733352184       0.448230534792       0.673824787140 
      0.312788814306       0.538420975208       0.312804728746 
