1   
      1.000000000000
      9.855036735535        0.000000000000        0.000000000000
      0.000000000000        9.855036735535        0.000000000000
      0.000000000000        0.000000000000        9.855036735535
C
40 
Direct
      0.112353712320       0.112353712320       0.112353712320 
      0.022347558290       0.022347558290       0.022345222533 
      0.202362507582       0.202362507582       0.022347049788 
      0.022346949205       0.202362507582       0.202362507582 
      0.202362507582       0.022346949205       0.202362507582 
      0.862357020378       0.862357020378       0.862356007099 
      0.952361762524       0.952361762524       0.952365815639 
      0.772347152233       0.772347152233       0.952362716198 
      0.772347152233       0.952362716198       0.772347152233 
      0.952362716198       0.772347152233       0.772347152233 
      0.362355828285       0.362355828285       0.862357020378 
      0.272348046303       0.272348046303       0.952362716198 
      0.452362567186       0.452362567186       0.952363789082 
      0.452361613512       0.272347033024       0.772346138954 
      0.272347033024       0.452361613512       0.772346138954 
      0.362355828285       0.862356007099       0.362356841564 
      0.272348046303       0.952362716198       0.272347033024 
      0.452361613512       0.772347152233       0.272347033024 
      0.452364593744       0.952362716198       0.452362567186 
      0.272347033024       0.772347152233       0.452361613512 
      0.612353861332       0.612353861332       0.112352699041 
      0.522348105907       0.702362716198       0.202362507582 
      0.702362716198       0.522348105907       0.202362507582 
      0.522347092628       0.522347092628       0.022347049788 
      0.702362716198       0.702362716198       0.022347049788 
      0.862356007099       0.362355828285       0.362356841564 
      0.952362716198       0.272348046303       0.272347033024 
      0.772347152233       0.452361613512       0.272347033024 
      0.772347152233       0.272347033024       0.452361613512 
      0.952362716198       0.452364593744       0.452362567186 
      0.112353712320       0.612353861332       0.612352848053 
      0.022347355261       0.522345066071       0.522348105907 
      0.202362507582       0.702362716198       0.522347092628 
      0.022347150370       0.702362716198       0.702361702919 
      0.202362507582       0.522348105907       0.702362716198 
      0.612353861332       0.112353712320       0.612352848053 
      0.702362716198       0.022347150370       0.702361702919 
      0.522345066071       0.022347355261       0.522348105907 
      0.522348105907       0.202362507582       0.702362716198 
      0.702362716198       0.202362507582       0.522347092628 
