# File generated with Atomsk by geedai on 2025-05-21 15:47:19
1.000000
     32.80800000        0.00000000        0.00000000
      0.00000000       17.78000000        0.00000000
      0.00000000        0.00000000        2.47300000
 C  O  H
    56       2       1
Cartesian
      6.17300000       -0.38200000        2.46400000
     27.37300000       -0.38200000        2.46400000
     22.57700000        8.50800000        2.46400000
     10.96800000        8.50800000        2.46400000
      5.37100000       -0.38200000        1.22800000
     28.17500000       -0.38200000        1.22800000
     21.77500000        8.50800000        1.22800000
     11.77100000        8.50800000        1.22800000
      3.97300000       17.39800000        1.22800000
     29.57200000       -0.38200000        1.22800000
     20.37700000        8.50800000        1.22800000
     13.16800000        8.50800000        1.22800000
      7.04300000        0.84900000        2.46400000
     26.50200000       16.16700000        2.46400000
     26.50200000        0.84900000        2.46400000
      7.04300000       16.16700000        2.46400000
     23.44700000        9.73900000        2.46400000
     10.09800000        7.27700000        2.46400000
     10.09800000        9.73900000        2.46400000
     23.44700000        7.27700000        2.46400000
      8.30800000        3.39200000        2.46400000
     25.23700000       13.62400000        2.46400000
     25.23700000        3.39200000        2.46400000
      8.30800000       13.62400000        2.46400000
     24.71200000       12.28200000        2.46400000
      8.83300000        4.73400000        2.46400000
      8.83300000       12.28200000        2.46400000
     24.71200000        4.73400000        2.46400000
      7.39700000        1.43200000        1.22800000
     26.14900000       15.58400000        1.22800000
     26.14900000        1.43200000        1.22800000
      7.39700000       15.58400000        1.22800000
     23.80100000       10.32200000        1.22800000
      9.74500000        6.69400000        1.22800000
      9.74500000       10.32200000        1.22800000
     23.80100000        6.69400000        1.22800000
      8.03500000        2.73300000        1.22800000
     25.51100000       14.28300000        1.22800000
     25.51100000        2.73300000        1.22800000
      8.03500000       14.28300000        1.22800000
     24.43900000       11.62300000        1.22800000
      9.10600000        5.39300000        1.22800000
      9.10600000       11.62300000        1.22800000
     24.43900000        5.39300000        1.22800000
      3.23600000       17.39800000        2.46400000
     30.31000000       17.39800000        2.46400000
     19.64000000        8.50800000        2.46400000
     13.90600000        8.50800000        2.46400000
      1.81000000       17.39800000        2.46400000
     31.73500000       17.39800000        2.46400000
     18.21400000        8.50800000        2.46400000
     15.33100000        8.50800000        2.46400000
      1.08300000       17.39800000        1.22800000
     32.46200000       17.39800000        1.22800000
     17.48700000        8.50800000        1.22800000
     16.05800000        8.50800000        1.22800000
      1.08300000       18.74800000        1.22800000
      2.19600000       19.69900000        0.90200000
      1.52600000       20.43200000        0.86200000
