1   
      1.000000000000
     15.770161628723        0.000000000000        0.000000000000
     -7.885680675507       13.658399581909        0.000000000000
      0.000000000000        0.000000000000       25.746921539307
C
128 
Direct
      0.489128798246       0.705638527870       0.628972232342 
      0.489132583141       0.604840517044       0.656062901020 
      0.489136397839       0.501665174961       0.475944280624 
      0.489138931036       0.419916212559       0.517323970795 
      0.413544893265       0.407632172108       0.551568806171 
      0.614466130733       0.593652546406       0.525398731232 
      0.566387951374       0.597946643829       0.477295905352 
      0.566383540630       0.765058159828       0.602677881718 
      0.489135742188       0.604842305183       0.716279804707 
      0.270143717527       0.624407470226       0.497286647558 
     -0.010877314024       0.548695683479       0.128971144557 
     -0.010882450268       0.649495899677       0.156061366200 
     -0.010882957838       0.752670943737       0.975941956043 
     -0.010886825621       0.834420621395       0.017323702574 
      0.064707010984       0.846699416637       0.051566552371 
     -0.136214196682       0.660681903362       0.025398882106 
     -0.088135428727       0.656388163567       0.977297365665 
     -0.088131628931       0.489277839661       0.102676354349 
     -0.010876045562       0.649488627911       0.216279834509 
      0.208115816116       0.629948258400      -0.002714635339 
      0.413530319929       0.510791063309       0.628968417645 
      0.566512882710       0.701104044914       0.475944280624 
      0.627823591232       0.777379274368       0.517327845097 
      0.642104983330       0.694352567196       0.551568806171 
      0.489126265049       0.771944999695       0.525398731232 
      0.489130049944       0.707842350006       0.477295905352 
      0.363793373108       0.551921784878       0.602677881718 
      0.489145904779       0.312870740891       0.497278869152 
      0.064720325172       0.743543446064       0.128969594836 
     -0.088259719312       0.553231120110       0.975941956043 
     -0.149573609233       0.476957082748       0.017328867689 
     -0.163853749633       0.559981584549       0.051567718387 
     -0.010875474662       0.482389569283       0.025398725644 
     -0.010876997374       0.546493589878       0.977297365665 
      0.114459194243       0.702414512634       0.102676354349 
     -0.010882894509       0.941477835178      -0.002712541725 
      0.564736723900       0.598092317581       0.628972232342 
      0.411747217178       0.611750066280       0.475944280624 
      0.350432038307       0.617222785950       0.517323970795 
      0.411745935678       0.712538599968       0.551568806171 
      0.363806039095       0.448932409286       0.525398731232 
      0.411881625652       0.508739471436       0.477299749851 
      0.537224054337       0.497546344995       0.602677881718 
      0.708115756512       0.877255380154       0.497286647558 
     -0.086484849453       0.656243681908       0.128970369697 
      0.066505976021       0.642585873604       0.975945770741 
      0.127820491791       0.637109875679       0.017326848581 
      0.066507883370       0.541796267033       0.051567718387 
      0.114445872605       0.805400609970       0.025399813429 
      0.066370911896       0.745593965054       0.977297365665 
     -0.058971557766       0.756792128086       0.102676354349 
     -0.229856237769       0.377077668905      -0.002720624208 
     -0.010875982232       0.548695743084       0.350113332272 
     -0.010879723355       0.649496674538       0.323022693396 
     -0.010883021168       0.752670884132       0.503139734268 
     -0.010886318982       0.834420919418       0.461760044098 
     -0.086477868259       0.759412825108       0.427515208721 
      0.114446513355       0.805400967598       0.453685283661 
      0.066370271146       0.745592772961       0.501788139343 
      0.066378518939       0.578484296799       0.376406967640 
     -0.010879914276       0.649483501911       0.262804239988 
     -0.229864478111       0.377079486847       0.481797426939 
      0.489128798246       0.705638527870       0.850113272667 
      0.489131301641       0.604837536812       0.823022663593 
      0.489135116339       0.501666665077       0.003140251152 
      0.489139556885       0.419916570187       0.961757719517 
      0.564730465412       0.494918465614       0.927516698837 
      0.363806039095       0.448933869600       0.953682899475 
      0.411882281303       0.508742034435       0.001786131994 
      0.411873370409       0.675851643085       0.876407682896 
      0.489135116339       0.604847073555       0.762805759907 
      0.708109378815       0.877256870270       0.981802821159 
     -0.086482942104       0.656244814396       0.350112915039 
      0.066504709423       0.642585158348       0.503139734268 
      0.127821132541       0.637110292912       0.461756169796 
      0.142093658447       0.736621797085       0.427519083023 
     -0.010875474662       0.482389569283       0.453685283661 
     -0.010876553133       0.546493828297       0.501788139343 
     -0.136218637228       0.557682693005       0.376407742500 
     -0.010889362544       0.941466867924       0.481801271439 
      0.564735472202       0.598090827465       0.850113272667 
      0.411747217178       0.611750066280       0.003140293993 
      0.350432693958       0.617227554321       0.961757719517 
      0.336159527302       0.517713427544       0.927516698837 
      0.489128798246       0.771946489811       0.953686833382 
      0.489130049944       0.707841634750       0.001786893234 
      0.614470541477       0.696652531624       0.876407682896 
      0.489135116339       0.312861502171       0.981798887253 
      0.064721599221       0.743543446064       0.350114464760 
     -0.088260985911       0.553231120110       0.503139734268 
     -0.149571701884       0.476957440376       0.461756169796 
     -0.088255919516       0.452443361282       0.427515208721 
     -0.136213570833       0.660682320595       0.453685283661 
     -0.088134795427       0.656390011311       0.501788139343 
      0.037202220410       0.812310755253       0.376407325268 
      0.208108201623       0.629929244518       0.481797426939 
      0.413529038429       0.510789573193       0.850113272667 
      0.566512882710       0.701104044914       0.003140297718 
      0.627826154232       0.777377843857       0.961753785610 
      0.566508471966       0.801891565323       0.927516698837 
      0.614466726780       0.593652188778       0.953686833382 
      0.566386699677       0.597945928574       0.001786578679 
      0.441049367189       0.442021369934       0.876407682896 
      0.270137369633       0.624388456345       0.981798887253 
      0.064707644284       0.846699833870       0.427519083023 
     -0.088130354881       0.489278554916       0.376406967640 
      0.413544267416       0.407633244991       0.927516698837 
      0.566383540630       0.765058159828       0.876407682896 
     -0.163853108883       0.559983372688       0.427515208721 
      0.114459827542       0.702413439751       0.376407742500 
      0.642104983330       0.694352567196       0.927516698837 
      0.363792717457       0.551921427250       0.876407682896 
      0.066507250071       0.541795909405       0.427515208721 
     -0.058969911188       0.756793081760       0.376406967640 
      0.411744654179       0.712539315224       0.927516698837 
      0.537221491337       0.497544884682       0.876407682896 
      0.564732313156       0.494920969009       0.551568806171 
      0.411874026060       0.675852000713       0.602677881718 
     -0.086478509009       0.759412467480       0.051566943526 
      0.066378518939       0.578484296799       0.102677911520 
      0.336159527302       0.517713427544       0.551568806171 
      0.614471137524       0.696653604507       0.602677881718 
      0.142092391849       0.736623346806       0.051567718387 
     -0.136218637228       0.557681977749       0.102676354349 
      0.566507816315       0.801892638206       0.551568806171 
      0.441051274538       0.442022502422       0.602677881718 
     -0.088255278766       0.452443718910       0.051568493247 
      0.037200760096       0.812317252159       0.102676354349 
