# File generated with Atomsk by geedai on 2025-05-21 15:38:33
1.000000
     14.19000000        0.00000000        0.00000000
      0.00000000       14.19000000        0.00000000
      0.00000000        0.00000000       14.19000000
 C  H
    64       1
Cartesian
      0.75900000        9.19300000        9.19300000
      0.05600000        9.89600000        9.89600000
      2.09800000        7.85400000        9.19300000
      2.80100000        7.15100000        9.89600000
      0.75900000        7.85400000        7.85400000
      0.05600000        7.15100000        7.15100000
      2.09800000        9.19300000        7.85400000
      2.80100000        9.89600000        7.15100000
      9.19300000        0.75900000        9.19300000
      9.89600000        0.05600000        9.89600000
      9.19300000        2.09800000        7.85400000
      9.89600000        2.80100000        7.15100000
      7.85400000        0.75900000        7.85400000
      7.15100000        0.05600000        7.15100000
      7.85400000        2.09800000        9.19300000
      7.15100000        2.80100000        9.89600000
      9.19300000        9.19300000        0.75900000
      9.89600000        9.89600000        0.05600000
      7.85400000        9.19300000        2.09800000
      7.15100000        9.89600000        2.80100000
      7.85400000        7.85400000        0.75900000
      7.15100000        7.15100000        0.05600000
      9.19300000        7.85400000        2.09800000
      9.89600000        7.15100000        2.80100000
      4.30700000       12.74100000        4.30700000
      3.60400000       13.44300000        3.60400000
      5.64600000       11.40100000        4.30700000
      6.34800000       10.69900000        3.60400000
      5.64600000       12.74100000        5.64600000
      6.34800000       13.44300000        6.34800000
      4.30700000       11.40100000        5.64600000
      3.60400000       10.69900000        6.34800000
     12.74100000        4.30700000        4.30700000
     13.44300000        3.60400000        3.60400000
     11.40100000        4.30700000        5.64600000
     10.69900000        3.60400000        6.34800000
     12.74100000        5.64600000        5.64600000
     13.44300000        6.34800000        6.34800000
     11.40100000        5.64600000        4.30700000
     10.69900000        6.34800000        3.60400000
      4.30700000        4.30700000       12.74100000
      3.60400000        3.60400000       13.44300000
      4.30700000        5.64600000       11.40100000
      3.60400000        6.34800000       10.69900000
      5.64600000        5.64600000       12.74100000
      6.34800000        6.34800000       13.44300000
      5.64600000        4.30700000       11.40100000
      6.34800000        3.60400000       10.69900000
     12.74100000       12.74100000       12.74100000
     13.44300000       13.44300000       13.44300000
     12.74000000       11.40100000       11.40100000
     13.44300000       10.69900000       10.69900000
     11.40100000       11.40100000       12.74100000
     10.69900000       10.69900000       13.44300000
     11.40100000       12.74000000       11.40100000
     10.69900000       13.44300000       10.69900000
      2.09800000        0.75900000        2.09800000
      2.80100000        0.05600000        2.80100000
      0.75900000        0.75900000        0.75900000
      0.05600000        0.05600000        0.05600000
      0.75900000        2.09800000        2.09800000
      0.05600000        2.80100000        2.80100000
      2.09800000        2.09800000        0.75900000
      2.80100000        2.80100000        0.05600000
      0.56500000       10.80400000       10.24300000
