&CONTROL
   calculation      = 'relax'
   restart_mode     = 'from_scratch'
   nstep            = 1000
   tprnfor          = .true.
   etot_conv_thr    = 0.0001
   forc_conv_thr    = 0.001
/
&SYSTEM
   tot_magnetization = 0
   ecutwfc          = 50
   ecutrho          = 400
   occupations      = 'smearing'
   degauss          = 0.0001
   smearing         = 'gaussian'
   nspin            = 2
   input_dft        = 'pbe'
   ntyp             = 1
   nat              = 128
   ibrav            = 0
/
&ELECTRONS
   electron_maxstep = 100
   scf_must_converge = .false.
   conv_thr         = 1e-06
   mixing_mode      = 'plain'
   mixing_beta      = 0.3
   diagonalization  = 'david'
/
&IONS
   ion_dynamics     = 'bfgs'
   bfgs_ndim        = 1
/
&CELL
/
&FCP
/
&RISM
/
ATOMIC_SPECIES
C  12.011 C.pbe-n-kjpaw_psl.1.0.0.UPF

K_POINTS gamma

CELL_PARAMETERS angstrom
18.76156234741200 0.00000000000000 0.00000000000000
0.00000000000000 18.76162338256800 0.00000000000000
0.00000000000000 0.00000000000000 18.76106262207000

ATOMIC_POSITIONS angstrom
C  3.1199499459 3.1189899880 3.1206700248  
C  14.9758997487 14.9758992640 14.9754997385  
C  14.9762005650 14.9759999092 3.1204600740  
C  3.1198498602 3.1198999882 14.9756003807  
C  14.9757006955 3.1191102031 14.9752995724  
C  3.1197701830 14.9756006833 3.1199300251  
C  3.1198000969 14.9758992640 14.9756003807  
C  14.9757006955 3.1199399667 3.1199501536  
C  12.5005001956 12.5006996580 12.5006995227  
C  5.5948898875 5.5958301106 5.5946100294  
C  5.5946695871 5.5949701534 12.5001001426  
C  12.5005001956 12.5006996580 5.5949002144  
C  5.5947998663 12.5006996580 5.5955700441  
C  12.5009005385 5.5956204331 12.5010003310  
C  12.5007998936 5.5949796587 5.5953698779  
C  5.5950900590 12.5008998301 12.5003003087  
C  4.0112499523 4.0105000553 4.0116401709  
C  14.0843003238 14.0850003367 14.0844999588  
C  14.0848001933 14.0845999925 4.0113100086  
C  4.0108898674 4.0109099049 14.0840996266  
C  14.0850003648 4.0112599265 14.0844004349  
C  4.0110897593 14.0845999925 4.0113200728  
C  4.0109200608 14.0845004656 14.0844004349  
C  14.0843998504 4.0110603135 4.0110997783  
C  13.3908997100 13.3927000911 13.3919005867  
C  4.7035499027 4.7043597422 4.7036700760  
C  4.7037702031 4.7037402151 13.3915997784  
C  13.3917999224 13.3920000478 4.7038998756  
C  4.7035996660 13.3923992738 4.7048000640  
C  13.3915997510 4.7033901935 13.3917999445  
C  13.3921007387 4.7038201721 4.7042196941  
C  4.7037601387 13.3922997469 13.3912005644  
C  0.4135620095 3.4560199790 3.4564400225  
C  17.6819996941 14.6396000688 14.6390998885  
C  17.6823005104 14.6396995957 3.4566200601  
C  0.4137960088 3.4559400220 14.6392005306  
C  17.6821003389 3.4560297640 14.6392005306  
C  0.4137989792 14.6396000688 3.4565999317  
C  0.4136049932 14.6396995957 14.6390003645  
C  17.6819001675 3.4558799145 3.4564500867  
C  3.4557599195 0.4134890242 3.4563399394  
C  14.6397000559 17.6819990667 14.6392005306  
C  3.4558099624 17.6819990667 14.6390998885  
C  14.6395994110 0.4137150216 3.4565700186  
C  14.6397000559 17.6821008301 3.4566099959  
C  3.4559298975 0.4135890054 14.6392005306  
C  14.6397995825 0.4134560000 14.6390998885  
C  3.4558798546 17.6819990667 3.4564098298  
C  3.4556701778 3.4558200865 0.4140500115  
C  14.6400992805 14.6400004131 17.6818999814  
C  14.6399002273 3.4558200865 17.6816998152  
C  3.4557498550 14.6398002409 0.4137660118  
C  3.4556301994 14.6398002409 17.6818004574  
C  14.6397995825 3.4557499145 0.4137699956  
C  14.6400992805 14.6400999400 0.4140819864  
C  3.4557699840 3.4556800220 17.6818999814  
C  9.7946194324 12.8367997994 12.8366006348  
C  8.3013499178 5.2588398184 5.2589895972  
C  8.3011905635 5.2589303991 12.8367001587  
C  9.7944203792 12.8368993263 5.2589599637  
C  8.3012598966 12.8368993263 5.2589599637  
C  9.7944405082 5.2588398184 12.8367001587  
C  9.7945802927 5.2590097970 5.2590600467  
C  8.3015098313 12.8368993263 12.8367996827  
C  12.8369995865 9.7943404144 12.8367996827  
C  5.2591201719 8.3013802786 5.2591400014  
C  12.8369000599 8.3012399345 5.2589996614  
C  5.2589300649 9.7945495328 12.8367001587  
C  5.2589004306 8.3012896980 12.8367001587  
C  12.8369000599 9.7944399414 5.2589303301  
C  5.2590497205 9.7944097478 5.2590896803  
C  12.8367994150 8.3012399345 12.8367996827  
C  12.8367994150 12.8367997994 9.7943406549  
C  5.2589798282 5.2588303131 8.3011500531  
C  5.2588601727 12.8369999715 8.3014402381  
C  12.8369995865 5.2586799044 9.7945900239  
C  12.8369995865 5.2587799905 8.3014296147  
C  5.2588601727 12.8369999715 9.7944703715  
C  5.2589401294 5.2589896679 9.7943406549  
C  12.8366998884 12.8367997994 8.3011500531  
C  1.6122000119 3.3537599921 3.3542999487  
C  16.4833998878 14.7419003138 14.7414999545  
C  16.4836000592 14.7419998407 3.3543499903  
C  1.6124299575 3.3537599921 14.7415994784  
C  16.4834994144 3.3537200136 14.7413993123  
C  1.6124499466 14.7418007869 3.3541000622  
C  1.6122499150 14.7418007869 14.7413993123  
C  16.4832992429 3.3537300781 3.3540698695  
C  3.3533901150 1.6121599664 3.3539901945  
C  14.7419999681 16.4833998342 14.7414999545  
C  3.3536199208 16.4833998342 14.7414999545  
C  14.7417997966 1.6123400094 3.3541800168  
C  14.7419999681 16.4834993611 3.3543899676  
C  3.3538402212 1.6122200739 14.7415994784  
C  14.7420994946 1.6121300524 14.7414999545  
C  3.3537700494 16.4833998342 3.3539999791  
C  3.3535600930 3.3536501211 1.6126999787  
C  14.7422001395 14.7420993677 16.4832001474  
C  14.7420994946 3.3535600996 16.4829999813  
C  3.3535900069 14.7419998407 1.6124700392  
C  3.3534099644 14.7419998407 16.4831006235  
C  14.7419999681 3.3535799491 1.6124399863  
C  14.7422996661 14.7422995398 1.6127199673  
C  3.3536699637 3.3535600996 16.4832001474  
C  10.9933008728 12.7344000275 12.7343000927  
C  7.1027003483 5.3610903000 5.3610100186  
C  7.1025499401 5.3611104290 12.7345002588  
C  10.9931007014 12.7346001996 5.3611397352  
C  7.1026103270 12.7346997265 5.3611799920  
C  10.9931007014 5.3611299989 12.7345997827  
C  10.9932002280 5.3611898269 5.3613801582  
C  7.1028300683 12.7346001996 12.7345997827  
C  12.7348003191 10.9930000340 12.7345002588  
C  5.3615196107 7.1026904655 5.3613399013  
C  12.7346996743 7.1025998848 5.3613002035  
C  5.3612098482 10.9932002061 12.7345997827  
C  5.3611203860 7.1026502074 12.7345002588  
C  12.7344995028 10.9931006792 5.3610704039  
C  5.3612601706 10.9931006792 5.3612800751  
C  12.7343999762 7.1025803149 12.7345002588  
C  12.7346996743 12.7344995544 10.9930002320  
C  5.3611997837 5.3610500419 7.1025100454  
C  5.3612797404 12.7346001996 7.1027801019  
C  12.7346996743 5.3610299129 10.9932003981  
C  12.7346996743 5.3611104290 7.1027896070  
C  5.3612898049 12.7346001996 10.9930997560  
C  5.3612400416 5.3612597194 10.9930002320  
C  12.7344995028 12.7344995544 7.1025100454  

