1   
      1.000000000000
     18.761562347412        0.000000000000        0.000000000000
      0.000000000000       18.761623382568        0.000000000000
      0.000000000000        0.000000000000       18.761062622070
C
128 
Direct
      0.166294783354       0.166243076324       0.166337594390 
      0.798222422600       0.798219799995       0.798222362995 
      0.798238456249       0.798225164413       0.166326403618 
      0.166289448738       0.166291579604       0.798227727413 
      0.798211812973       0.166249483824       0.798211693764 
      0.166285201907       0.798203885555       0.166298151016 
      0.166286796331       0.798219799995       0.798227727413 
      0.798211812973       0.166293710470       0.166299223900 
      0.666282474995       0.666290938854       0.666310846806 
      0.298210233450       0.298259377480       0.298203259706 
      0.298198491335       0.298213541508       0.666278898716 
      0.666282474995       0.666290938854       0.298218727112 
      0.298205435276       0.666290938854       0.298254430294 
      0.666303813457       0.298248201609       0.666326880455 
      0.666298449039       0.298214048147       0.298243761063 
      0.298220902681       0.666301608086       0.666289567947 
      0.213801488280       0.213760823011       0.213827982545 
      0.750699758530       0.750734627247       0.750730395317 
      0.750726401806       0.750713288784       0.213810384274 
      0.213782295585       0.213782668114       0.750709056854 
      0.750737071037       0.213801324368       0.750725090504 
      0.213792949915       0.750713288784       0.213810920715 
      0.213783904910       0.750707983971       0.750725090504 
      0.750705063343       0.213790684938       0.213799178600 
      0.713741183281       0.713834822178       0.713813543320 
      0.250701397657       0.250743746758       0.250714480877 
      0.250713139772       0.250710725784       0.713797509670 
      0.713789165020       0.713797509670       0.250726729631 
      0.250704050064       0.713818788528       0.250774711370 
      0.713778495789       0.250692069530       0.713808178902 
      0.713805198669       0.250714987516       0.250743776560 
      0.250712603331       0.713813483715       0.713776230812 
      0.022043047473       0.184206873178       0.184234768152 
      0.942458808422       0.780294954777       0.780291616917 
      0.942474842072       0.780300259590       0.184244364500 
      0.022055519745       0.184202611446       0.780296981335 
      0.942464172840       0.184207394719       0.780296981335 
      0.022055678070       0.780294954777       0.184243291616 
      0.022045338526       0.780300259590       0.780286312103 
      0.942453503609       0.184199407697       0.184235304594 
      0.184193611145       0.022039085627       0.184229433537 
      0.780302822590       0.942455708981       0.780296981335 
      0.184196278453       0.942455708981       0.780291616917 
      0.780297458172       0.022051131353       0.184241697192 
      0.780302822590       0.942461133003       0.184243828058 
      0.184202671051       0.022044414654       0.780296981335 
      0.780308127403       0.022037325427       0.780291616917 
      0.184200003743       0.942455708981       0.184233158827 
      0.184188827872       0.184196218848       0.022069646046 
      0.780324101448       0.780316293240       0.942478597164 
      0.780313491821       0.184196218848       0.942467927933 
      0.184193074703       0.780305624008       0.022054508328 
      0.184186697006       0.780305624008       0.942473292351 
      0.780308127403       0.184192478657       0.022054720670 
      0.780324101448       0.780321598053       0.022071350366 
      0.184194147587       0.184188753366       0.942478597164 
      0.522057771683       0.684205174446       0.684215009212 
      0.442465811968       0.280297696590       0.280314058065 
      0.442457318306       0.280302524567       0.684220314026 
      0.522047162056       0.684210479259       0.280312478542 
      0.442461013794       0.684210479259       0.280312478542 
      0.522048234940       0.280297696590       0.684220314026 
      0.522055685520       0.280306756496       0.280317813158 
      0.442474335432       0.684210479259       0.684225618839 
      0.684218049049       0.522041201591       0.684225618839 
      0.280313551426       0.442465990782       0.280322074890 
      0.684212744236       0.442458510399       0.280314594507 
      0.280303418636       0.522052347660       0.684220314026 
      0.280301839113       0.442461162806       0.684220314026 
      0.684212744236       0.522046506405       0.280310899019 
      0.280309796333       0.522044897079       0.280319392681 
      0.684207379818       0.442458510399       0.684225618839 
      0.684207379818       0.684205174446       0.522056818008 
      0.280306071043       0.280297189951       0.442466944456 
      0.280299693346       0.684215843678       0.442482411861 
      0.684218049049       0.280289173126       0.522070109844 
      0.684218049049       0.280294507742       0.442481845617 
      0.280299693346       0.684215843678       0.522063732147 
      0.280303955078       0.280305683613       0.522056818008 
      0.684202075005       0.684205174446       0.442466944456 
      0.085931010544       0.178756386042       0.178790509701 
      0.878572881222       0.785747587681       0.785749733448 
      0.878583550453       0.785752892494       0.178793177009 
      0.085943266749       0.178756386042       0.785755038261 
      0.878578186035       0.178754255176       0.785744369030 
      0.085944332182       0.785742282867       0.178779855371 
      0.085933670402       0.785742282867       0.785744369030 
      0.878567516804       0.178754791617       0.178778246045 
      0.178737252951       0.085928596556       0.178773999214 
      0.785755455494       0.878570020199       0.785749733448 
      0.178749501705       0.878570020199       0.785749733448 
      0.785744786263       0.085938192904       0.178784117103 
      0.785755455494       0.878575325012       0.178795307875 
      0.178761243820       0.085931800306       0.785755038261 
      0.785760760307       0.085927002132       0.785749733448 
      0.178757503629       0.878570020199       0.178774520755 
      0.178746312857       0.178750529885       0.085959948599 
      0.785766124725       0.785758197308       0.878585636616 
      0.785760760307       0.178745731711       0.878574967384 
      0.178747907281       0.785752892494       0.085947692394 
      0.178738310933       0.785752892494       0.878580331802 
      0.785755455494       0.178746789694       0.085946090519 
      0.785771429539       0.785768866539       0.085961014032 
      0.178752169013       0.178745731711       0.878585636616 
      0.585948050022       0.678747236729       0.678762197495 
      0.378577232361       0.285747677088       0.285751938820 
      0.378569215536       0.285748749971       0.678772866726 
      0.585937380791       0.678757905960       0.285758852959 
      0.378572434187       0.678763210773       0.285760998726 
      0.585937380791       0.285749793053       0.678778171539 
      0.585942685604       0.285752981901       0.285771667957 
      0.378584146500       0.678757905960       0.678778171539 
      0.678770780563       0.585930109024       0.678772866726 
      0.285771489143       0.378575474024       0.285769522190 
      0.678765416145       0.378570646048       0.285767406225 
      0.285754978657       0.585940778255       0.678778171539 
      0.285750210285       0.378573328257       0.678772866726 
      0.678754746914       0.585935473442       0.285755157471 
      0.285757660866       0.585935473442       0.285766333342 
      0.678749442101       0.378569602966       0.678772866726 
      0.678765416145       0.678752541542       0.585947632790 
      0.285754442215       0.285745531321       0.378577172756 
      0.285758703947       0.678757905960       0.378591567278 
      0.678765416145       0.285744458437       0.585958302021 
      0.678765416145       0.285748749971       0.378592073917 
      0.285759240389       0.678757905960       0.585952937603 
      0.285756587982       0.285756707191       0.585947632790 
      0.678754746914       0.678752541542       0.378577172756 
