&CONTROL
   calculation      = 'relax'
   restart_mode     = 'from_scratch'
   nstep            = 1000
   tprnfor          = .true.
   etot_conv_thr    = 0.0001
   forc_conv_thr    = 0.001
/
&SYSTEM
   tot_magnetization = 0
   ecutwfc          = 50
   ecutrho          = 400
   occupations      = 'smearing'
   degauss          = 0.0001
   smearing         = 'gaussian'
   nspin            = 2
   input_dft        = 'pbe'
   ntyp             = 1
   nat              = 144
   ibrav            = 0
/
&ELECTRONS
   electron_maxstep = 100
   scf_must_converge = .false.
   conv_thr         = 1e-06
   mixing_mode      = 'plain'
   mixing_beta      = 0.3
   diagonalization  = 'david'
/
&IONS
   ion_dynamics     = 'bfgs'
   bfgs_ndim        = 1
/
&CELL
/
&FCP
/
&RISM
/
ATOMIC_SPECIES
C  12.011 C.pbe-n-kjpaw_psl.1.0.0.UPF

K_POINTS gamma

CELL_PARAMETERS angstrom
21.88423538208000 0.00000000000000 0.00000000000000
0.00000000000000 21.88553237915000 0.00000000000000
0.00000000000000 0.00000000000000 21.88479614257800

ATOMIC_POSITIONS angstrom
C  19.4662991680 1.6044199583 1.6043700615  
C  12.5469000861 8.5242203221 8.5239296511  
C  12.5464996346 8.5236196093 1.6044199562  
C  19.4662991680 1.6049099534 8.5243999002  
C  12.5466000736 1.6042599966 8.5237900765  
C  19.4662991680 8.5239398590 1.6046299703  
C  19.4662000335 8.5237904961 8.5239798719  
C  12.5469000861 1.6039800227 1.6047199763  
C  8.5240099481 12.5469001408 12.5469998331  
C  1.6044399895 19.4662997032 19.4664992557  
C  1.6048000044 19.4664992886 12.5466006759  
C  8.5244704020 12.5473006160 19.4661992356  
C  1.6046499982 12.5472001711 19.4664992557  
C  8.5240203833 19.4666010380 12.5468002545  
C  8.5241006041 19.4668006233 19.4664001186  
C  1.6048900082 12.5469001408 12.5466998130  
C  21.0482010462 0.0234943005 0.0223277983  
C  10.9652003902 10.1056002394 10.1056000891  
C  10.9647999387 10.1060998550 0.0238013008  
C  21.0482010462 0.0239569983 10.1065999390  
C  10.9652003902 0.0217189015 10.1048004702  
C  21.0483001808 10.1050999716 0.0230257018  
C  21.0471992654 10.1056993799 10.1059001093  
C  10.9653999637 0.0229466994 0.0224232997  
C  10.1053998485 10.9649997362 10.9653991825  
C  0.0227438017 21.0473991575 21.0485003681  
C  0.0228620004 21.0471004318 10.9643999849  
C  10.1062000992 10.9649005958 21.0468998257  
C  0.0227013016 10.9658006865 21.0480999064  
C  10.1056000742 21.0491015031 10.9660996643  
C  10.1056000742 21.0478987731 21.0485995052  
C  0.0238842007 10.9651001811 10.9645995635  
C  16.7534011213 1.2753399227 1.2756799532  
C  15.2598998762 8.8530000013 8.8528606724  
C  15.2595998637 8.8523197153 1.2756299770  
C  16.7532993779 1.2749700213 8.8531600403  
C  15.2595998637 1.2753399227 8.8533896210  
C  16.7532002433 8.8524906021 1.2756799532  
C  16.7534011213 8.8530104372 8.8528900222  
C  15.2598998762 1.2754100385 1.2757799871  
C  19.7950997993 4.3174298705 1.2758899673  
C  12.2180003202 5.8111497516 8.8531104718  
C  19.7949015302 5.8107499287 8.8528404536  
C  12.2175998687 4.3169397123 1.2755700545  
C  12.2175998687 5.8105601270 1.2753299569  
C  19.7945989090 4.3173698644 8.8527002268  
C  12.2180003202 4.3174399802 8.8534000565  
C  19.7950997993 5.8109795171 1.2757300109  
C  19.7950006648 1.2753399227 4.3174799699  
C  12.2178998812 8.8524906021 5.8109196951  
C  12.2180994547 1.2756099500 5.8111499280  
C  19.7950006648 8.8529099922 4.3175500833  
C  19.7950997993 8.8529497789 5.8110697052  
C  12.2178007467 1.2753000546 4.3177098767  
C  12.2178998812 8.8522903645 4.3174000732  
C  19.7949015302 1.2751499579 5.8112001487  
C  5.8110799435 12.2180995899 12.2180003290  
C  4.3174701069 19.7956011742 19.7950996025  
C  4.3177300090 19.7954002844 12.2178998875  
C  5.8113799560 12.2185000651 19.7954009271  
C  4.3177499012 12.2183004797 19.7952000441  
C  5.8111999485 19.7952998395 12.2178998875  
C  5.8110799435 19.7957003147 19.7950996025  
C  4.3176396792 12.2182000348 12.2180994661  
C  8.8530499372 15.2597998244 12.2178007504  
C  1.2758500191 16.7535004645 19.7950996025  
C  8.8531301579 16.7539009397 19.7952000441  
C  1.2755899539 15.2599002693 12.2178998875  
C  1.2757000129 16.7535996050 12.2178007504  
C  8.8533095132 15.2602994400 19.7956005058  
C  1.2759300768 15.2600007143 19.7950996025  
C  8.8531705944 16.7534013241 12.2178007504  
C  8.8528901480 12.2185000651 15.2600000059  
C  1.2758099902 19.7954002844 16.7534012503  
C  1.2758300454 12.2179000046 16.7535003874  
C  8.8531797252 19.7956011742 15.2596999858  
C  8.8531197227 19.7958999000 16.7532995043  
C  1.2756400103 12.2180004495 15.2598004273  
C  1.2758099902 19.7952998395 15.2596999858  
C  8.8528699297 12.2187009549 16.7535003874  
C  17.9524988178 1.3744200237 1.3746098905  
C  14.0607004363 8.7539795803 8.7537600986  
C  14.0604004238 8.7533703884 1.3746299463  
C  17.9523996832 1.3742300589 8.7542199121  
C  14.0604995584 1.3743900206 8.7541703435  
C  17.9522992443 8.7536899859 1.3747400080  
C  17.9524988178 8.7538002144 8.7538403213  
C  14.0607004363 1.3743499079 1.3749299664  
C  19.6959991560 3.1182699131 1.3748699624  
C  12.3170005246 7.0102598127 8.7539303274  
C  19.6959000215 7.0099304316 8.7537901006  
C  12.3167996466 3.1178299775 1.3747600637  
C  12.3166000731 7.0097099746 1.3743700375  
C  19.6954995700 3.1181900138 8.7536198717  
C  12.3167996466 3.1182999162 8.7542199121  
C  19.6960995950 7.0101300170 1.3747700100  
C  19.6960995950 1.3743999673 3.1183401340  
C  12.3170005246 8.7537402083 7.0100996424  
C  12.3172000981 1.3747701133 7.0103200920  
C  19.6959991560 8.7538204338 3.1184001380  
C  19.6960995950 8.7537806472 7.0102098673  
C  12.3170005246 1.3741499964 3.1185299293  
C  12.3169000856 8.7532503763 3.1182302353  
C  19.6960995950 1.3743600176 7.0103298753  
C  7.0102500343 12.3169999988 12.3170995984  
C  3.1183300173 19.6963994306 19.6961999118  
C  3.1185599182 19.6963994306 12.3169000198  
C  7.0105200456 12.3174996144 19.6963003533  
C  3.1185902456 12.3171995842 19.6963003533  
C  7.0103596041 19.6963002902 12.3170004613  
C  7.0102298161 19.6966994609 19.6961007747  
C  3.1184598053 12.3173000291 12.3172000400  
C  8.7539192926 14.0607001993 12.3170004613  
C  1.3748600065 17.9526000897 19.6959990287  
C  8.7539395109 17.9529992604 19.6959990287  
C  1.3747600567 14.0607993397 12.3169000198  
C  1.3748999538 17.9526992301 12.3167995783  
C  8.7543699635 14.0611998149 19.6963994904  
C  1.3750199588 14.0607993397 19.6961007747  
C  8.7540706033 17.9526000897 12.3167995783  
C  8.7538005920 12.3171995842 14.0607998398  
C  1.3746998911 19.6963994306 17.9524996704  
C  1.3748200592 12.3169999988 17.9526001119  
C  8.7539903825 19.6965011800 14.0606002612  
C  8.7540797341 19.6968990462 17.9524996704  
C  1.3747400015 12.3169999988 14.0607007027  
C  1.3748999538 19.6963994306 14.0606002612  
C  8.7538795084 12.3177996447 17.9526001119  
C  20.3498006954 0.7216220149 0.7208499716  
C  11.6635994366 9.4073600391 9.4072301067  
C  11.6632002895 9.4073496033 0.7217159538  
C  20.3498006954 0.7220020261 9.4080603799  
C  11.6633998631 0.7204690182 9.4067402911  
C  20.3498006954 9.4069699998 0.7213609843  
C  20.3491002315 9.4072400270 9.4074296853  
C  11.6636998755 0.7210359775 0.7210700136  
C  9.4071801574 11.6635001801 11.6638004714  
C  0.7211120291 20.3493004932 20.3499999421  
C  0.7213570121 20.3491987438 11.6629995480  
C  9.4078395326 11.6635993206 20.3490007445  
C  0.7211880105 11.6641002407 20.3498003634  
C  9.4072903794 20.3504014738 11.6640991871  
C  9.4073001624 20.3498001088 20.3499999421  
C  0.7219479878 11.6635001801 11.6632004310  

