1   
      1.000000000000
     21.884235382080        0.000000000000        0.000000000000
      0.000000000000       21.885532379150        0.000000000000
      0.000000000000        0.000000000000       21.884796142578
C 
144 
Direct
      0.889512419701       0.073309615254       0.073309801519 
      0.573330521584       0.389491111040       0.389490932226 
      0.573312222958       0.389463663101       0.073312081397 
      0.889512419701       0.073332004249       0.389512419701 
      0.573316812515       0.073302306235       0.389484554529 
      0.889512419701       0.389478296041       0.073321677744 
      0.889507889748       0.389471471310       0.389493227005 
      0.573330521584       0.073289513588       0.073325790465 
      0.389504581690       0.573296546936       0.573320388794 
      0.073314875364       0.889459729195       0.889498770237 
      0.073331326246       0.889468848705       0.573302149773 
      0.389525622129       0.573314845562       0.889485061169 
      0.073324471712       0.573310256004       0.889498770237 
      0.389505058527       0.889473497868       0.573311269283 
      0.389508724213       0.889482617378       0.889494240284 
      0.073335438967       0.573296546936       0.573306679726 
      0.961797416210       0.001073508291       0.001020242460 
      0.501054763794       0.461747974157       0.461763501167 
      0.501036465168       0.461770802736       0.001087572426 
      0.961797416210       0.001094650012       0.461809188128 
      0.501054763794       0.000992386253       0.461726963520 
      0.961801946163       0.461725115776       0.001052132342 
      0.961751639843       0.461752504110       0.461777210236 
      0.501063883305       0.001048487145       0.001024606288 
      0.461766183376       0.501015901566       0.501051008701 
      0.001039277879       0.961703777313       0.961786448956 
      0.001044678967       0.961690127850       0.501005351543 
      0.461802750826       0.501011371613       0.961713314056 
      0.001037335838       0.501052498817       0.961768150330 
      0.461775332689       0.961781561375       0.501083016396 
      0.461775332689       0.961726605892       0.961790978909 
      0.001091388403       0.501020491123       0.501014471054 
      0.765546560287       0.058273196220       0.058290693909 
      0.697301030159       0.404513806105       0.404521048069 
      0.697287321091       0.404482722282       0.058288410306 
      0.765541911125       0.058256294578       0.404534727335 
      0.697287321091       0.058273196220       0.404545217752 
      0.765537381172       0.404490530491       0.058290693909 
      0.765546560287       0.404514282942       0.404522389174 
      0.697301030159       0.058276399970       0.058295264840 
      0.904536962509       0.197273239493       0.058300290257 
      0.558301448822       0.265524715185       0.404532462358 
      0.904527902603       0.265506446362       0.404520124197 
      0.558283150196       0.197250843048       0.058285672218 
      0.558283150196       0.265497773886       0.058274701238 
      0.904514074326       0.197270497680       0.404513716698 
      0.558301448822       0.197273701429       0.404545694590 
      0.904536962509       0.265516936779       0.058292981237 
      0.904532432556       0.058273196220       0.197282165289 
      0.558296859264       0.404490530491       0.265523135662 
      0.558305978775       0.058285534382       0.265533655882 
      0.904532432556       0.404509693384       0.197285369039 
      0.904536962509       0.404511511326       0.265529990196 
      0.558292329311       0.058271374553       0.197292670608 
      0.558296859264       0.404481381178       0.197278514504 
      0.904527902603       0.058264516294       0.265535950661 
      0.265537261963       0.558272898197       0.558287143707 
      0.197286769748       0.904506266117       0.904513776302 
      0.197298645973       0.904497087002       0.558282554150 
      0.265550971031       0.558291196823       0.904527544975 
      0.197299554944       0.558282077312       0.904518365860 
      0.265542745590       0.904492497444       0.558282554150 
      0.265537261963       0.904510796070       0.904513776302 
      0.197294518352       0.558277487755       0.558291673660 
      0.404540061951       0.697255134583       0.558278024197 
      0.058299958706       0.765505731106       0.904513776302 
      0.404543727636       0.765524029732       0.904518365860 
      0.058288075030       0.697259724140       0.558282554150 
      0.058293104172       0.765510261059       0.558278024197 
      0.404551923275       0.697277963161       0.904536664486 
      0.058303616941       0.697264313698       0.904513776302 
      0.404545575380       0.765501201153       0.558278024197 
      0.404532760382       0.558291196823       0.697287738323 
      0.058298129588       0.904497087002       0.765526950359 
      0.058299046010       0.558263778687       0.765531480312 
      0.404545992613       0.904506266117       0.697274029255 
      0.404543250799       0.904519915581       0.765522301197 
      0.058290362358       0.558268368244       0.697278618813 
      0.058298129588       0.904492497444       0.697274029255 
      0.404531836510       0.558300375938       0.765531480312 
      0.820339322090       0.062800392509       0.062811180949 
      0.642503619194       0.399989336729       0.399992763996 
      0.642489910126       0.399961501360       0.062812097371 
      0.820334792137       0.062791712582       0.400013774633 
      0.642494440079       0.062799021602       0.400011509657 
      0.820330202579       0.399976104498       0.062817126513 
      0.820339322090       0.399981141090       0.399996429682 
      0.642503619194       0.062797188759       0.062825806439 
      0.900008559227       0.142480880022       0.062823064625 
      0.562825262547       0.320314794779       0.400000542402 
      0.900004029274       0.320299744606       0.399994134903 
      0.562816083431       0.142460778356       0.062818042934 
      0.562806963921       0.320289671421       0.062800221145 
      0.899985730648       0.142477229238       0.399986356497 
      0.562816083431       0.142482250929       0.400013774633 
      0.900013148785       0.320308864117       0.062818497419 
      0.900013148785       0.062799476087       0.142488881946 
      0.562825262547       0.399978399277       0.320318251848 
      0.562834382057       0.062816388905       0.320328325033 
      0.900008559227       0.399982064962       0.142491623759 
      0.900013148785       0.399980247021       0.320323288441 
      0.562825262547       0.062788054347       0.142497554421 
      0.562820672989       0.399956017733       0.142483860254 
      0.900013148785       0.062797650695       0.320328772068 
      0.320333331823       0.562791883945       0.562815368176 
      0.142492070794       0.899973511696       0.899994671345 
      0.142502576113       0.899973511696       0.562806248665 
      0.320345669985       0.562814712524       0.899999260902 
      0.142503961921       0.562801003456       0.899999260902 
      0.320338338614       0.899968981743       0.562810838223 
      0.320332407951       0.899987220764       0.899990141392 
      0.142498001456       0.562805593014       0.562819957733 
      0.400010287762       0.642465531826       0.562810838223 
      0.062824219465       0.820295333862       0.899985492229 
      0.400011211634       0.820313572884       0.899985492229 
      0.062819652259       0.642470061779       0.562806248665 
      0.062826044858       0.820299863815       0.562801659107 
      0.400030881166       0.642488360405       0.900003790855 
      0.062831528485       0.642470061779       0.899990141392 
      0.400017201900       0.820295333862       0.562801659107 
      0.400004863739       0.562801003456       0.642491698265 
      0.062816902995       0.899973511696       0.820318341255 
      0.062822394073       0.562791883945       0.820322930813 
      0.400013536215       0.899978160858       0.642482578754 
      0.400017619133       0.899996340275       0.820318341255 
      0.062818735838       0.562791883945       0.642487168312 
      0.062826044858       0.899973511696       0.642482578754 
      0.400008469820       0.562828421593       0.820322930813 
      0.929884016514       0.032972559333       0.032938390970 
      0.532968103886       0.429843783379       0.429852306843 
      0.532949864864       0.429843306541       0.032977961004 
      0.929884016514       0.032989922911       0.429890245199 
      0.532958984375       0.032919876277       0.429829925299 
      0.929884016514       0.429825961590       0.032961741090 
      0.929852008820       0.429838299751       0.429861426353 
      0.532972693443       0.032945781946       0.032948445529 
      0.429861038923       0.532931983471       0.532963633537 
      0.032951209694       0.929806053638       0.929869294167 
      0.032962404191       0.929801404476       0.532927036285 
      0.429891169071       0.532936513424       0.929823637009 
      0.032954681665       0.532959401608       0.929860174656 
      0.429866075516       0.929856359959       0.532977283001 
      0.429866522551       0.929828882217       0.929869294167 
      0.032989408821       0.532931983471       0.532936215401 
