&CONTROL
   calculation      = 'relax'
   restart_mode     = 'from_scratch'
   nstep            = 1000
   tprnfor          = .true.
   etot_conv_thr    = 0.0001
   forc_conv_thr    = 0.001
/
&SYSTEM
   tot_magnetization = 0
   ecutwfc          = 50
   ecutrho          = 400
   occupations      = 'smearing'
   degauss          = 0.0001
   smearing         = 'gaussian'
   nspin            = 2
   input_dft        = 'pbe'
   ntyp             = 2
   nat              = 33
   ibrav            = 0
/
&ELECTRONS
   electron_maxstep = 100
   scf_must_converge = .false.
   conv_thr         = 1e-06
   mixing_mode      = 'plain'
   mixing_beta      = 0.3
   diagonalization  = 'david'
/
&IONS
   ion_dynamics     = 'bfgs'
   bfgs_ndim        = 1
/
&CELL
/
&FCP
/
&RISM
/
ATOMIC_SPECIES
C  12.011 C.pbe-n-kjpaw_psl.1.0.0.UPF
H  1.008 H.pbe-rrkjus_psl.1.0.0.UPF

K_POINTS gamma

CELL_PARAMETERS angstrom
7.09700000000000 0.00000000000000 0.00000000000000
0.00000000000000 7.09700000000000 0.00000000000000
0.00000000000000 0.00000000000000 24.58800000000000

ATOMIC_POSITIONS angstrom
C  4.6470000000 5.2320000000 6.4540000000  
C  3.3390000000 1.6320000000 13.3190000000  
C  3.3880000000 5.2110000000 8.6060000000  
C  2.1630000000 5.2320000000 6.4540000000  
C  4.6510000000 1.5810000000 18.1330000000  
C  3.3380000000 5.1820000000 11.2690000000  
C  3.3910000000 1.6020000000 15.9810000000  
C  2.1660000000 1.5810000000 18.1340000000  
C  3.3380000000 3.9390000000 11.9860000000  
C  6.9540000000 5.2320000000 5.1220000000  
C  3.3650000000 5.1940000000 9.8340000000  
C  3.3380000000 6.4230000000 11.9870000000  
C  -0.0740000000 3.9380000000 0.3070000000  
C  3.4040000000 5.2320000000 7.1710000000  
C  -0.1030000000 5.1940000000 2.4590000000  
C  -0.0740000000 6.4230000000 0.3070000000  
C  -0.0740000000 2.8750000000 24.2800000000  
C  3.4080000000 1.5810000000 17.4160000000  
C  -0.1000000000 1.6190000000 22.1290000000  
C  -0.0740000000 0.3900000000 24.2810000000  
C  3.3380000000 2.8750000000 12.6020000000  
C  -0.1400000000 1.5810000000 19.4660000000  
C  3.3670000000 1.6190000000 14.7530000000  
C  3.3380000000 0.3900000000 12.6010000000  
C  5.7140000000 1.5810000000 18.7480000000  
C  -0.0750000000 5.1810000000 1.0250000000  
C  -0.1230000000 1.6020000000 20.9000000000  
C  1.1020000000 1.5810000000 18.7480000000  
C  5.7110000000 5.2320000000 5.8390000000  
C  -0.0730000000 1.6310000000 23.5630000000  
C  -0.1270000000 5.2110000000 3.6880000000  
C  1.0980000000 5.2320000000 5.8400000000  
H  2.2880000000 5.2110000000 8.6060000000  

