&CONTROL
   calculation      = 'relax'
   restart_mode     = 'from_scratch'
   nstep            = 1000
   tprnfor          = .true.
   etot_conv_thr    = 0.0001
   forc_conv_thr    = 0.001
/
&SYSTEM
   tot_magnetization = 0
   ecutwfc          = 50
   ecutrho          = 400
   occupations      = 'smearing'
   degauss          = 0.0001
   smearing         = 'gaussian'
   nspin            = 2
   input_dft        = 'pbe'
   ntyp             = 1
   nat              = 40
   ibrav            = 0
/
&ELECTRONS
   electron_maxstep = 100
   scf_must_converge = .false.
   conv_thr         = 1e-06
   mixing_mode      = 'plain'
   mixing_beta      = 0.3
   diagonalization  = 'david'
/
&IONS
   ion_dynamics     = 'bfgs'
   bfgs_ndim        = 1
/
&CELL
/
&FCP
/
&RISM
/
ATOMIC_SPECIES
C  12.011 C.pbe-n-kjpaw_psl.1.0.0.UPF

K_POINTS gamma

CELL_PARAMETERS angstrom
9.89810752868700 0.00000000000000 0.00000000000000
0.00000000000000 9.89810752868700 0.00000000000000
0.00000000000000 0.00000000000000 9.89788913726800

ATOMIC_POSITIONS angstrom
C  1.0908099730 1.0908099730 1.0909199739  
C  0.2003220020 0.2003130049 0.2004430040  
C  1.9818700705 1.9818700705 0.2002930066  
C  0.2002229971 1.9819399824 1.9818798815  
C  1.9819399824 0.2002229971 1.9818798815  
C  8.5149802977 8.5149802977 8.5149003863  
C  9.4054604516 9.4054604516 9.4053603027  
C  7.6239302298 7.6239302298 9.4055201819  
C  7.6238600230 9.4055996853 7.6239201250  
C  9.4055996853 7.6238600230 7.6239201250  
C  3.5659398078 3.5659398078 8.5148295911  
C  2.6748800053 2.6748800053 9.4055302112  
C  4.4564400207 4.4564400207 9.4053496834  
C  4.4565199621 2.6747900344 7.6239401837  
C  2.6747900344 4.4565199621 7.6239401837  
C  3.5659100141 8.5149295600 3.5659900353  
C  2.6749000644 9.4056197444 2.6748900122  
C  4.4565299917 7.6239898171 2.6748699535  
C  4.4564299912 9.4054297730 4.4564499517  
C  2.6747699753 7.6239898171 4.4565101277  
C  6.0398599025 6.0398599025 1.0909400325  
C  5.1492599841 6.9310096760 1.9818699997  
C  6.9310096760 5.1492599841 1.9818699997  
C  5.1493903682 5.1493903682 0.2004379893  
C  6.9309300296 6.9309300296 0.2002989984  
C  8.5149295600 3.5659100141 3.5659900353  
C  9.4056197444 2.6749000644 2.6748900122  
C  7.6239898171 4.4565299917 2.6748699535  
C  7.6239898171 2.6747699753 4.4565101277  
C  9.4054297730 4.4564299912 4.4564499517  
C  1.0908900619 6.0399401389 6.0398104137  
C  0.2003050034 5.1494098373 5.1493699660  
C  1.9818000112 6.9309500887 5.1492201161  
C  0.2002130045 6.9309099705 6.9309098469  
C  1.9818299524 5.1492599841 6.9309399349  
C  6.0399401389 1.0908900619 6.0398104137  
C  6.9309099705 0.2002130045 6.9309098469  
C  5.1494098373 0.2003050034 5.1493699660  
C  5.1492599841 1.9818299524 6.9309399349  
C  6.9309500887 1.9818000112 5.1492201161  

