&CONTROL
   calculation      = 'relax'
   restart_mode     = 'from_scratch'
   nstep            = 1000
   tprnfor          = .true.
   etot_conv_thr    = 0.0001
   forc_conv_thr    = 0.001
/
&SYSTEM
   tot_magnetization = 0
   ecutwfc          = 50
   ecutrho          = 400
   occupations      = 'smearing'
   degauss          = 0.0001
   smearing         = 'gaussian'
   nspin            = 2
   input_dft        = 'pbe'
   ntyp             = 1
   nat              = 112
   ibrav            = 0
/
&ELECTRONS
   electron_maxstep = 100
   scf_must_converge = .false.
   conv_thr         = 1e-06
   mixing_mode      = 'plain'
   mixing_beta      = 0.3
   diagonalization  = 'david'
/
&IONS
   ion_dynamics     = 'bfgs'
   bfgs_ndim        = 1
/
&CELL
/
&FCP
/
&RISM
/
ATOMIC_SPECIES
C  12.011 C.pbe-n-kjpaw_psl.1.0.0.UPF

K_POINTS gamma

CELL_PARAMETERS angstrom
32.80830383300800 0.00000000000000 0.00000000000000
0.00000000000000 17.77966499328600 0.00000000000000
0.00000000000000 0.00000000000000 4.94570302960000

ATOMIC_POSITIONS angstrom
C  6.1729597261 -0.3817289941 2.4641700414  
C  27.3726008749 -0.3817289941 2.4641700414  
C  22.5771003983 8.5080997272 2.4641700414  
C  10.9684998021 8.5080997272 2.4641700414  
C  5.3707598967 -0.3817289941 1.2277499587  
C  28.1748011931 -0.3817289941 1.2277499587  
C  21.7749000800 8.5080997272 1.2277499587  
C  11.7707001203 8.5080997272 1.2277499587  
C  3.9733801795 17.3978993716 1.2277499587  
C  29.5722014433 -0.3817289941 1.2277499587  
C  20.3774998298 8.5080997272 1.2277499587  
C  13.1680006386 8.5080997272 1.2277499587  
C  7.0432202163 0.8493130220 2.4641700414  
C  26.5023990504 16.1669004741 2.4641700414  
C  26.5023990504 0.8493139493 2.4641700414  
C  7.0432202163 16.1669004741 2.4641700414  
C  23.4473999991 9.7391505525 2.4641700414  
C  10.0982002012 7.2770600293 2.4641700414  
C  10.0982002012 9.7391399549 2.4641700414  
C  23.4473999991 7.2770600293 2.4641700414  
C  8.3081594030 3.3924699633 2.4641700414  
C  25.2373997313 13.6237003480 2.4641700414  
C  25.2373997313 3.3924699633 2.4641700414  
C  8.3081594030 13.6237003480 2.4641700414  
C  24.7122995863 12.2822998106 2.4641700414  
C  8.8332703033 4.7339102413 2.4641700414  
C  8.8332703033 12.2822998106 2.4641700414  
C  24.7122995863 4.7339102413 2.4641700414  
C  7.3969203494 1.4323599925 1.2277499587  
C  26.1487008729 15.5838002511 1.2277499587  
C  26.1487008729 1.4323599925 1.2277499587  
C  7.3969203494 15.5838002511 1.2277499587  
C  23.8011001321 10.3221999074 1.2277499587  
C  9.7445000682 6.6940096146 1.2277499587  
C  9.7445000682 10.3221999074 1.2277499587  
C  23.8011001321 6.6940096146 1.2277499587  
C  8.0350504609 2.7333101139 1.2277499587  
C  25.5105008513 14.2829002030 1.2277499587  
C  25.5105008513 2.7333101139 1.2277499587  
C  8.0350504609 14.2829002030 1.2277499587  
C  24.4392004219 11.6230999556 1.2277499587  
C  9.1063802232 5.3930703557 1.2277499587  
C  9.1063802232 11.6230999556 1.2277499587  
C  24.4392004219 5.3930703557 1.2277499587  
C  3.2359100147 17.3978993716 2.4641700414  
C  30.3096992300 17.3978993716 2.4641700414  
C  19.6400998195 8.5080997272 2.4641700414  
C  13.9055003808 8.5080997272 2.4641700414  
C  1.8102699948 17.3978993716 2.4641700414  
C  31.7353001393 17.3978993716 2.4641700414  
C  18.2143991783 8.5080997272 2.4641700414  
C  15.3312000443 8.5080997272 2.4641700414  
C  1.0832900117 17.3978993716 1.2277499587  
C  32.4622986999 17.3978993716 1.2277499587  
C  17.4874006177 8.5080997272 1.2277499587  
C  16.0580998507 8.5080997272 1.2277499587  
C  6.1729597261 -0.3817289941 4.9370215562  
C  27.3726008749 -0.3817289941 4.9370215562  
C  22.5771003983 8.5080997272 4.9370215562  
C  10.9684998021 8.5080997272 4.9370215562  
C  5.3707598967 -0.3817289941 3.7006014735  
C  28.1748011931 -0.3817289941 3.7006014735  
C  21.7749000800 8.5080997272 3.7006014735  
C  11.7707001203 8.5080997272 3.7006014735  
C  3.9733801795 17.3978993716 3.7006014735  
C  29.5722014433 -0.3817289941 3.7006014735  
C  20.3774998298 8.5080997272 3.7006014735  
C  13.1680006386 8.5080997272 3.7006014735  
C  7.0432202163 0.8493130220 4.9370215562  
C  26.5023990504 16.1669004741 4.9370215562  
C  26.5023990504 0.8493139493 4.9370215562  
C  7.0432202163 16.1669004741 4.9370215562  
C  23.4473999991 9.7391505525 4.9370215562  
C  10.0982002012 7.2770600293 4.9370215562  
C  10.0982002012 9.7391399549 4.9370215562  
C  23.4473999991 7.2770600293 4.9370215562  
C  8.3081594030 3.3924699633 4.9370215562  
C  25.2373997313 13.6237003480 4.9370215562  
C  25.2373997313 3.3924699633 4.9370215562  
C  8.3081594030 13.6237003480 4.9370215562  
C  24.7122995863 12.2822998106 4.9370215562  
C  8.8332703033 4.7339102413 4.9370215562  
C  8.8332703033 12.2822998106 4.9370215562  
C  24.7122995863 4.7339102413 4.9370215562  
C  7.3969203494 1.4323599925 3.7006014735  
C  26.1487008729 15.5838002511 3.7006014735  
C  26.1487008729 1.4323599925 3.7006014735  
C  7.3969203494 15.5838002511 3.7006014735  
C  23.8011001321 10.3221999074 3.7006014735  
C  9.7445000682 6.6940096146 3.7006014735  
C  9.7445000682 10.3221999074 3.7006014735  
C  23.8011001321 6.6940096146 3.7006014735  
C  8.0350504609 2.7333101139 3.7006014735  
C  25.5105008513 14.2829002030 3.7006014735  
C  25.5105008513 2.7333101139 3.7006014735  
C  8.0350504609 14.2829002030 3.7006014735  
C  24.4392004219 11.6230999556 3.7006014735  
C  9.1063802232 5.3930703557 3.7006014735  
C  9.1063802232 11.6230999556 3.7006014735  
C  24.4392004219 5.3930703557 3.7006014735  
C  3.2359100147 17.3978993716 4.9370215562  
C  30.3096992300 17.3978993716 4.9370215562  
C  19.6400998195 8.5080997272 4.9370215562  
C  13.9055003808 8.5080997272 4.9370215562  
C  1.8102699948 17.3978993716 4.9370215562  
C  31.7353001393 17.3978993716 4.9370215562  
C  18.2143991783 8.5080997272 4.9370215562  
C  15.3312000443 8.5080997272 4.9370215562  
C  1.0832900117 17.3978993716 3.7006014735  
C  32.4622986999 17.3978993716 3.7006014735  
C  17.4874006177 8.5080997272 3.7006014735  
C  16.0580998507 8.5080997272 3.7006014735  

