C 
 1.0000000000000000
    32.8083038330079972    0.0000000000000000    0.0000000000000000
     0.0000000000000000   17.7796649932860014    0.0000000000000000
     0.0000000000000000    0.0000000000000000    4.9457030296000000
 C  
 112
Cartesian
  6.1729597260611611 -0.3817289940819784  2.4641700414290306
 27.3726008748557668 -0.3817289940819784  2.4641700414290306
 22.5771003982736147  8.5080997271913983  2.4641700414290306
 10.9684998020691911  8.5080997271913983  2.4641700414290306
  5.3707598966634063 -0.3817289940819784  1.2277499586687568
 28.1748011931300582 -0.3817289940819784  1.2277499586687568
 21.7749000799993233  8.5080997271913983  1.2277499586687568
 11.7707001203434825  8.5080997271913983  1.2277499586687568
  3.9733801795108770 17.3978993715650851  1.2277499586687568
 29.5722014433267297 -0.3817289940819784  1.2277499586687568
 20.3774998298026446  8.5080997271913983  1.2277499586687568
 13.1680006386442585  8.5080997271913983  1.2277499586687568
  7.0432202163410240  0.8493130219947861  2.4641700414290306
 26.5023990504163187 16.1669004741095748  2.4641700414290306
 26.5023990504163187  0.8493139492754342  2.4641700414290306
  7.0432202163410240 16.1669004741095748  2.4641700414290306
 23.4473999991028137  9.7391505524520987  2.4641700414290306
 10.0982002012399885  7.2770600293340344  2.4641700414290306
 10.0982002012399885  9.7391399549361193  2.4641700414290306
 23.4473999991028137  7.2770600293340344  2.4641700414290306
  8.3081594029937644  3.3924699632979678  2.4641700414290306
 25.2373997312935572 13.6237003479558876  2.4641700414290306
 25.2373997312935572  3.3924699632979678  2.4641700414290306
  8.3081594029937644 13.6237003479558876  2.4641700414290306
 24.7122995863296779 12.2822998105575287  2.4641700414290306
  8.8332703033398445  4.7339102413412490  2.4641700414290306
  8.8332703033398445 12.2822998105575287  2.4641700414290306
 24.7122995863296779  4.7339102413412490  2.4641700414290306
  7.3969203493658329  1.4323599925381920  1.2277499586687568
 26.1487008728976527 15.5838002510870375  1.2277499586687568
 26.1487008728976527  1.4323599925381920  1.2277499586687568
  7.3969203493658329 15.5838002510870375  1.2277499586687568
 23.8011001321276225 10.3221999074441584  1.2277499586687568
  9.7445000682151779  6.6940096145850436  1.2277499586687568
  9.7445000682151779 10.3221999074441584  1.2277499586687568
 23.8011001321276225  6.6940096145850436  1.2277499586687568
  8.0350504608614042  2.7333101138542473  1.2277499586687568
 25.5105008512701161 14.2829002029793184  1.2277499586687568
 25.5105008512701161  2.7333101138542473  1.2277499586687568
  8.0350504608614042 14.2829002029793184  1.2277499586687568
 24.4392004218592582 11.6230999555518775  1.2277499586687568
  9.1063802232252762  5.3930703557197566  1.2277499586687568
  9.1063802232252762 11.6230999555518775  1.2277499586687568
 24.4392004218592582  5.3930703557197566  1.2277499586687568
  3.2359100146812523 17.3978993715650851  2.4641700414290306
 30.3096992299594774 17.3978993715650851  2.4641700414290306
 19.6400998195268492  8.5080997271913983  2.4641700414290306
 13.9055003808159530  8.5080997271913983  2.4641700414290306
  1.8102699948147114 17.3978993715650851  2.4641700414290306
 31.7353001393094871 17.3978993715650851  2.4641700414290306
 18.2143991783137515  8.5080997271913983  2.4641700414290306
 15.3312000442759828  8.5080997271913983  2.4641700414290306
  1.0832900117112869 17.3978993715650851  1.2277499586687568
 32.4622986998852952 17.3978993715650851  1.2277499586687568
 17.4874006177051307  8.5080997271913983  1.2277499586687568
 16.0580998507417760  8.5080997271913983  1.2277499586687568
  6.1729597260611611 -0.3817289940819784  4.9370215562450301
 27.3726008748557668 -0.3817289940819784  4.9370215562450301
 22.5771003982736147  8.5080997271913983  4.9370215562450301
 10.9684998020691911  8.5080997271913983  4.9370215562450301
  5.3707598966634063 -0.3817289940819784  3.7006014734847570
 28.1748011931300582 -0.3817289940819784  3.7006014734847570
 21.7749000799993233  8.5080997271913983  3.7006014734847570
 11.7707001203434825  8.5080997271913983  3.7006014734847570
  3.9733801795108770 17.3978993715650851  3.7006014734847570
 29.5722014433267297 -0.3817289940819784  3.7006014734847570
 20.3774998298026446  8.5080997271913983  3.7006014734847570
 13.1680006386442585  8.5080997271913983  3.7006014734847570
  7.0432202163410240  0.8493130219947861  4.9370215562450301
 26.5023990504163187 16.1669004741095748  4.9370215562450301
 26.5023990504163187  0.8493139492754342  4.9370215562450301
  7.0432202163410240 16.1669004741095748  4.9370215562450301
 23.4473999991028137  9.7391505524520987  4.9370215562450301
 10.0982002012399885  7.2770600293340344  4.9370215562450301
 10.0982002012399885  9.7391399549361193  4.9370215562450301
 23.4473999991028137  7.2770600293340344  4.9370215562450301
  8.3081594029937644  3.3924699632979678  4.9370215562450301
 25.2373997312935572 13.6237003479558876  4.9370215562450301
 25.2373997312935572  3.3924699632979678  4.9370215562450301
  8.3081594029937644 13.6237003479558876  4.9370215562450301
 24.7122995863296779 12.2822998105575287  4.9370215562450301
  8.8332703033398445  4.7339102413412490  4.9370215562450301
  8.8332703033398445 12.2822998105575287  4.9370215562450301
 24.7122995863296779  4.7339102413412490  4.9370215562450301
  7.3969203493658329  1.4323599925381920  3.7006014734847570
 26.1487008728976527 15.5838002510870375  3.7006014734847570
 26.1487008728976527  1.4323599925381920  3.7006014734847570
  7.3969203493658329 15.5838002510870375  3.7006014734847570
 23.8011001321276225 10.3221999074441584  3.7006014734847570
  9.7445000682151779  6.6940096145850436  3.7006014734847570
  9.7445000682151779 10.3221999074441584  3.7006014734847570
 23.8011001321276225  6.6940096145850436  3.7006014734847570
  8.0350504608614042  2.7333101138542473  3.7006014734847570
 25.5105008512701161 14.2829002029793184  3.7006014734847570
 25.5105008512701161  2.7333101138542473  3.7006014734847570
  8.0350504608614042 14.2829002029793184  3.7006014734847570
 24.4392004218592582 11.6230999555518775  3.7006014734847570
  9.1063802232252762  5.3930703557197566  3.7006014734847570
  9.1063802232252762 11.6230999555518775  3.7006014734847570
 24.4392004218592582  5.3930703557197566  3.7006014734847570
  3.2359100146812523 17.3978993715650851  4.9370215562450301
 30.3096992299594774 17.3978993715650851  4.9370215562450301
 19.6400998195268492  8.5080997271913983  4.9370215562450301
 13.9055003808159530  8.5080997271913983  4.9370215562450301
  1.8102699948147114 17.3978993715650851  4.9370215562450301
 31.7353001393094871 17.3978993715650851  4.9370215562450301
 18.2143991783137515  8.5080997271913983  4.9370215562450301
 15.3312000442759828  8.5080997271913983  4.9370215562450301
  1.0832900117112869 17.3978993715650851  3.7006014734847570
 32.4622986998852952 17.3978993715650851  3.7006014734847570
 17.4874006177051307  8.5080997271913983  3.7006014734847570
 16.0580998507417760  8.5080997271913983  3.7006014734847570
