# File generated with Atomsk by madmaxiiemus on 2025-04-30 16:14:13
1.000000
      7.09700000        0.00000000        0.00000000
      0.00000000        7.09700000        0.00000000
      0.00000000        0.00000000       24.58800000
 C  O
    32       1
Cartesian
      4.64700000        5.23200000        6.45400000
      3.33900000        1.63200000       13.31900000
      3.38800000        5.21100000        8.60600000
      2.16300000        5.23200000        6.45400000
      4.65100000        1.58100000       18.13300000
      3.33800000        5.18200000       11.26900000
      3.39100000        1.60200000       15.98100000
      2.16600000        1.58100000       18.13400000
      3.33800000        3.93900000       11.98600000
      6.95400000        5.23200000        5.12200000
      3.36500000        5.19400000        9.83400000
      3.33800000        6.42300000       11.98700000
     -0.07400000        3.93800000        0.30700000
      3.40400000        5.23200000        7.17100000
     -0.10300000        5.19400000        2.45900000
     -0.07400000        6.42300000        0.30700000
     -0.07400000        2.87500000       24.28000000
      3.40800000        1.58100000       17.41600000
     -0.10000000        1.61900000       22.12900000
     -0.07400000        0.39000000       24.28100000
      3.33800000        2.87500000       12.60200000
     -0.14000000        1.58100000       19.46600000
      3.36700000        1.61900000       14.75300000
      3.33800000        0.39000000       12.60100000
      5.71400000        1.58100000       18.74800000
     -0.07500000        5.18100000        1.02500000
     -0.12300000        1.60200000       20.90000000
      1.10200000        1.58100000       18.74800000
      5.71100000        5.23200000        5.83900000
     -0.07300000        1.63100000       23.56300000
     -0.12700000        5.21100000        3.68800000
      1.09800000        5.23200000        5.84000000
      3.36500000        6.54400000        9.83400000
