# File generated with Atomsk by madmaxiiemus on 2025-05-23 11:37:55
1.000000
      8.00000000        0.00000000        0.00000000
      0.00000000        8.00000000        0.00000000
      0.00000000        0.00000000        8.00000000
 H
     2
Cartesian
      4.00000000        4.00000000        3.63100000
      4.00000000        4.00000000        4.36900000
