&CONTROL
   calculation      = 'relax'
   restart_mode     = 'from_scratch'
   nstep            = 1000
   tprnfor          = .true.
   etot_conv_thr    = 0.0001
   forc_conv_thr    = 0.001
/
&SYSTEM
   tot_magnetization = 0
   ecutwfc          = 50
   ecutrho          = 400
   occupations      = 'smearing'
   degauss          = 0.0001
   smearing         = 'gaussian'
   nspin            = 2
   input_dft        = 'pbe'
   ntyp             = 1
   nat              = 48
   ibrav            = 0
/
&ELECTRONS
   electron_maxstep = 100
   scf_must_converge = .false.
   conv_thr         = 1e-06
   mixing_mode      = 'plain'
   mixing_beta      = 0.3
   diagonalization  = 'david'
/
&IONS
   ion_dynamics     = 'bfgs'
   bfgs_ndim        = 1
/
&CELL
/
&FCP
/
&RISM
/
ATOMIC_SPECIES
C  12.011 C.pbe-n-kjpaw_psl.1.0.0.UPF

K_POINTS gamma

CELL_PARAMETERS angstrom
11.00008869171100 0.00000000000000 0.00000000000000
0.00000000000000 11.00156593322800 0.00000000000000
0.00000000000000 0.00000000000000 11.00008106231700

ATOMIC_POSITIONS angstrom
C  6.1680696824 4.6079997130 6.1685997640  
C  7.6840200084 3.0858300051 7.6838599442  
C  6.9739198907 3.7988399398 6.9740802791  
C  4.6081598910 6.1685701425 6.1685597690  
C  3.0858198657 7.6841502746 7.6838002795  
C  3.7989599342 6.9741705349 6.9739799637  
C  6.1687004238 6.1687196522 4.6078701732  
C  7.6840003388 7.6843601128 3.0857000352  
C  6.9741401913 6.9743298808 3.7987799444  
C  4.6030303633 4.6031898276 4.6028799760  
C  3.0849098146 3.0852598353 3.0849801250  
C  3.7959599784 3.7962199129 3.7959298081  
C  6.2253497907 4.5455898926 4.5459300302  
C  7.7643497167 3.0125597456 3.0132700531  
C  7.0530300781 3.7211099624 3.7216498928  
C  4.5456201073 6.2252002314 4.5458697099  
C  3.0127899078 7.7645202791 3.0131599029  
C  3.7211800736 7.0531300331 3.7215000754  
C  4.5460298925 4.5454400550 6.2255303679  
C  3.0128800605 3.0126499104 7.7644400573  
C  3.7214502041 3.7210499618 7.0532100813  
C  6.2291801352 6.2293602741 6.2290400940  
C  7.7643497167 7.7648402824 7.7648400074  
C  7.0551799754 7.0555202216 7.0553698119  
C  0.6675590419 10.1028996684 0.6678370278  
C  2.1875399746 8.5891707029 2.1876900778  
C  1.4755599261 9.2982199412 1.4757700239  
C  10.1020000883 0.6672090142 0.6675439906  
C  8.5885602706 2.1870899691 2.1875899263  
C  9.2975300367 1.4751100449 1.4755300538  
C  0.6678529809 0.6670720046 10.1026002192  
C  2.1874499857 2.1870099683 8.5888205101  
C  1.4756100838 1.4750100439 9.2979497645  
C  10.1077003649 10.1082000507 10.1069000108  
C  8.5898197865 8.5901497293 8.5897305605  
C  9.3008496249 9.3012599724 9.3004301109  
C  0.7289659744 10.0462997438 10.0458000908  
C  2.2592199360 8.5086800414 8.5081302468  
C  1.5521399355 9.2191797864 9.2186298221  
C  10.0454995555 0.7283220589 10.0459994103  
C  8.5082194162 2.2588300490 8.5082102368  
C  9.2181595537 1.5508800023 9.2183905077  
C  10.0463001120 10.0466000747 0.7291810156  
C  8.5082902271 8.5086898776 2.2588798867  
C  9.2189601102 9.2192801153 1.5520400189  
C  0.7258339858 0.7249080075 0.7249410527  
C  2.2603199635 2.2593200540 2.2600900636  
C  1.5509899142 1.5500299936 1.5504600520  

