1   
      1.000000000000
     11.000088691711        0.000000000000        0.000000000000
      0.000000000000       11.001565933228        0.000000000000
      0.000000000000        0.000000000000       11.000081062317
C
48 
Direct
      0.560729086399       0.418849438429       0.560777664185 
      0.698541641235       0.280490070581       0.698527574539 
      0.633987605572       0.345299929380       0.634002625942 
      0.418920248747       0.560699284077       0.560774028301 
      0.280526816845       0.698459684849       0.698522150517 
      0.345357209444       0.633925259113       0.633993506432 
      0.560786426067       0.560712873936       0.418894201517 
      0.698539853096       0.698478758335       0.280516117811 
      0.634007632732       0.633939743042       0.345341086388 
      0.418453931808       0.418412238359       0.418440550566 
      0.280444085598       0.280438244343       0.280450671911 
      0.345084488392       0.345061779022       0.345081984997 
      0.565936326981       0.413176625967       0.413263320923 
      0.705844283104       0.273830085993       0.273931622505 
      0.641179382801       0.338234573603       0.338329315186 
      0.413234859705       0.565846741199       0.413257837296 
      0.273887783289       0.705765008926       0.273921608925 
      0.338286370039       0.641102373600       0.338315695524 
      0.413272112608       0.413163006306       0.565953135490 
      0.273895978928       0.273838281631       0.705852985382 
      0.338310927153       0.338229119778       0.641196191311 
      0.566284537315       0.566224873066       0.566272199154 
      0.705844283104       0.705794095993       0.705889344215 
      0.641374826431       0.641319632530       0.641392529011 
      0.060686696321       0.918314695358       0.060712009668 
      0.198865666986       0.780722558498       0.198879450560 
      0.134140729904       0.845172405243       0.134159922600 
      0.918356239796       0.060646731406       0.060685370117 
      0.780771911144       0.198798060417       0.198870345950 
      0.845223188400       0.134081825614       0.134138107300 
      0.060713417828       0.060634277761       0.918411433697 
      0.198857486248       0.198790788651       0.780796110630 
      0.134145289660       0.134072735906       0.845261931419 
      0.918874442577       0.918796479702       0.918802320957 
      0.780886411667       0.780811548233       0.780878841877 
      0.845524966717       0.845448732376       0.845487415791 
      0.066269099712       0.913169980049       0.913247823715 
      0.205381974578       0.773406267166       0.773460686207 
      0.141102492809       0.837987959385       0.838051080704 
      0.913219869137       0.066201671958       0.913265943527 
      0.773468255997       0.205318957567       0.773467957973 
      0.838007748127       0.140969023108       0.838029325008 
      0.913292646408       0.913197278976       0.066288694739 
      0.773474693298       0.773407161236       0.205351203680 
      0.838080525398       0.837997078896       0.141093507409 
      0.065984375775       0.065891347826       0.065903246403 
      0.205481976271       0.205363497138       0.205461218953 
      0.140997946262       0.140891760588       0.140949875116 
