&CONTROL
   calculation      = 'relax'
   restart_mode     = 'from_scratch'
   nstep            = 1000
   tprnfor          = .true.
   etot_conv_thr    = 0.0001
   forc_conv_thr    = 0.001
/
&SYSTEM
   tot_magnetization = 0
   ecutwfc          = 50
   ecutrho          = 400
   occupations      = 'smearing'
   degauss          = 0.0001
   smearing         = 'gaussian'
   nspin            = 2
   input_dft        = 'pbe'
   ntyp             = 1
   nat              = 80
   ibrav            = 0
/
&ELECTRONS
   electron_maxstep = 100
   scf_must_converge = .false.
   conv_thr         = 1e-06
   mixing_mode      = 'plain'
   mixing_beta      = 0.3
   diagonalization  = 'david'
/
&IONS
   ion_dynamics     = 'bfgs'
   bfgs_ndim        = 1
/
&CELL
/
&FCP
/
&RISM
/
ATOMIC_SPECIES
C  12.011 C.pbe-n-kjpaw_psl.1.0.0.UPF

K_POINTS gamma

CELL_PARAMETERS angstrom
13.41641998291000 0.00000000000000 0.00000000000000
0.00000000000000 13.41560363769500 0.00000000000000
0.00000000000000 0.00000000000000 13.41514968872100

ATOMIC_POSITIONS angstrom
C  11.0797994362 11.0794003403 11.0790006545  
C  10.1970996115 10.1969005576 10.1967002497  
C  10.8927004841 12.6053002555 10.8921001280  
C  1.9115999193 1.9119000132 11.0791997562  
C  2.7941899879 2.7944199866 10.1967002497  
C  2.0985999110 0.3860059952 10.8922000787  
C  11.0796003157 1.9117598776 1.9121999395  
C  10.1970996115 2.7942098832 2.7947198360  
C  10.8927004841 0.3860539982 2.0990800760  
C  1.9114899632 11.0794003403 1.9122401197  
C  2.7941502037 10.1969005576 2.7945899002  
C  2.0985799189 12.6053002555 2.0992200070  
C  10.8928004442 10.8924998864 12.6049001121  
C  10.8928004442 2.0988300535 0.3863379884  
C  2.0985501308 10.8924998864 0.3863320164  
C  2.0984799588 2.0987400948 12.6049001121  
C  12.6056994402 10.8924998864 10.8922000787  
C  0.3855830120 10.8924998864 2.0991098613  
C  0.3856050032 2.0988500443 10.8922000787  
C  12.6056994402 2.0988700351 2.0992000168  
C  1.9117000793 1.9119999672 1.9119198778  
C  2.7942399679 2.7944399774 2.7945199347  
C  0.3856670035 2.0988700351 2.0991800267  
C  11.0796003157 11.0795002943 1.9120600086  
C  10.1970996115 10.1969005576 2.7945499199  
C  12.6056002798 10.8923999323 2.0990800760  
C  11.0797002758 1.9119499902 11.0791997562  
C  10.1970996115 2.7944299820 10.1967002497  
C  12.6056002798 2.0988700351 10.8922000787  
C  1.9114199911 11.0792995866 11.0790998056  
C  2.7941502037 10.1968006035 10.1967002497  
C  0.3856819975 10.8924998864 10.8923000294  
C  2.0984699628 2.0987400948 0.3861919855  
C  10.8928004442 2.0988098628 12.6051000134  
C  2.0985899149 10.8924998864 12.6051000134  
C  10.8927004841 10.8924998864 0.3861750189  
C  2.0986099070 0.3860990025 2.0991800267  
C  2.0986199030 12.6051995019 10.8922000787  
C  10.8927004841 12.6051995019 2.0990700810  
C  10.8927004841 0.3860859835 10.8922000787  
C  4.3714399045 4.3715101620 4.3718100205  
C  3.4889000159 3.4890399658 3.4892397488  
C  4.1844900928 5.8974000819 4.1845496716  
C  8.6199000748 8.6197594056 4.3716500994  
C  9.5024295675 9.5022695835 3.4891801782  
C  8.8068103022 7.0939594443 4.1846600172  
C  4.3716698127 8.6197993872 8.6197396012  
C  3.4889399999 9.5022599879 9.5021399568  
C  4.1844601047 7.0938802807 8.8066593182  
C  8.6198600907 4.3715501437 8.6195804798  
C  9.5023895835 3.4890699520 9.5020903812  
C  8.8067903102 5.8973900865 8.8066505226  
C  4.1846200409 4.1847500436 5.8975199716  
C  4.1844900928 8.8066398686 7.0938097587  
C  8.8067303342 4.1846700804 7.0937202029  
C  8.8067999064 8.8066598595 5.8975599519  
C  5.8974398685 4.1846300988 4.1845696618  
C  7.0938905145 4.1846201034 8.8066505226  
C  7.0939105066 8.8066702547 4.1846500221  
C  5.8973998845 8.8065902914 8.8065993478  
C  8.6197001545 8.6196802420 8.6198499467  
C  9.5023599953 9.5022096110 9.5021799370  
C  7.0938201426 8.8065902914 8.8066905028  
C  4.3714898845 4.3715901253 8.6196804304  
C  3.4889100119 3.4890699520 9.5021199666  
C  5.8974798526 4.1846500896 8.8066905028  
C  4.3716002405 8.6197394148 4.3714901784  
C  3.4889399999 9.5022096110 3.4891401980  
C  5.8974898486 8.8066598595 4.1846300320  
C  8.6197897188 4.3715801299 4.3715701389  
C  9.5024095755 3.4889000301 3.4893600894  
C  7.0938505305 4.1847100620 4.1845196864  
C  8.8067503262 8.8066198778 7.0939696797  
C  4.1845296770 8.8066198778 5.8974000308  
C  8.8067199383 4.1847600390 5.8972996803  
C  4.1845900529 4.1847500436 7.0939400943  
C  8.8067503262 7.0938099131 8.8067400784  
C  8.8068302943 5.8975500130 4.1845796568  
C  4.1844800968 5.8974800451 8.8066905028  
C  4.1845100848 7.0938099131 4.1845196864  

