1   
      1.000000000000
     13.416419982910        0.000000000000        0.000000000000
      0.000000000000       13.415603637695        0.000000000000
      0.000000000000        0.000000000000       13.415149688721
C
80 
Direct
      0.825838744640       0.825859248638       0.825857400894 
      0.760046243668       0.760077655315       0.760088443756 
      0.811893224716       0.939599931240       0.811925351620 
      0.142482116818       0.142513155937       0.825872242451 
      0.208266437054       0.208296254277       0.760088443756 
      0.156420260668       0.028772912920       0.811932802200 
      0.825823903084       0.142502710223       0.142540335655 
      0.760046243668       0.208280593157       0.208325654268 
      0.811893224716       0.028776491061       0.156470865011 
      0.142473921180       0.825859248638       0.142543330789 
      0.208263471723       0.760077655315       0.208315968513 
      0.156418770552       0.939599931240       0.156481295824 
      0.811900675297       0.811927676201       0.939601898193 
      0.811900675297       0.156446933746       0.028798634186 
      0.156416550279       0.811927676201       0.028798189014 
      0.156411319971       0.156440228224       0.939601898193 
      0.939572513103       0.811927676201       0.811932802200 
      0.028739634901       0.811927676201       0.156473085284 
      0.028741274029       0.156448423862       0.811932802200 
      0.939572513103       0.156449913979       0.156479805708 
      0.142489582300       0.142520606518       0.142519459128 
      0.208270162344       0.208297744393       0.208310753107 
      0.028745895252       0.156449913979       0.156478315592 
      0.825823903084       0.825866699219       0.142529904842 
      0.760046243668       0.760077655315       0.208312988281 
      0.939565122128       0.811920225620       0.156470865011 
      0.825831353664       0.142516881227       0.825872242451 
      0.760046243668       0.208296999335       0.760088443756 
      0.939565122128       0.156449913979       0.811932802200 
      0.142468705773       0.825851738453       0.825864791870 
      0.208263471723       0.760070204735       0.760088443756 
      0.028747012839       0.811927676201       0.811940252781 
      0.156410574913       0.156440228224       0.028787750751 
      0.811900675297       0.156445428729       0.939616799355 
      0.156419515610       0.811927676201       0.939616799355 
      0.811893224716       0.811927676201       0.028786486015 
      0.156421005726       0.028779845685       0.156478315592 
      0.156421750784       0.939592421055       0.811932802200 
      0.811893224716       0.939592421055       0.156470119953 
      0.811893224716       0.028778875247       0.811932802200 
      0.325827598572       0.325852662325       0.325886040926 
      0.260047018528       0.260073274374       0.260096967220 
      0.311893194914       0.439592599869       0.311927169561 
      0.642488837242       0.642517447472       0.325874119997 
      0.708268642426       0.708299815655       0.260092526674 
      0.656420290470       0.528784215450       0.311935395002 
      0.325844734907       0.642520427704       0.642537713051 
      0.260049998760       0.708299100399       0.708314120770 
      0.311890959740       0.528778314590       0.656471192837 
      0.642485857010       0.325855642557       0.642525851727 
      0.708265662193       0.260075509548       0.708310425282 
      0.656418800354       0.439591854811       0.656470537186 
      0.311902880669       0.311931550503       0.439616411924 
      0.311893194914       0.656447529793       0.528790950775 
      0.656414330006       0.311925590038       0.528784275055 
      0.656419515610       0.656449019909       0.439619392157 
      0.439568817616       0.311922609806       0.311928659678 
      0.528746902943       0.311921864748       0.656470537186 
      0.528748393059       0.656449794769       0.311934649944 
      0.439565837383       0.656443834305       0.656466722488 
      0.642473936081       0.642511546612       0.642545938492 
      0.708263456821       0.708295345306       0.708317101002 
      0.528741657734       0.656443834305       0.656473517418 
      0.325831323862       0.325858622789       0.642533302307 
      0.260047763586       0.260075509548       0.708312630653 
      0.439571797848       0.311924099922       0.656473517418 
      0.325839549303       0.642515957355       0.325862199068 
      0.260049998760       0.708295345306       0.260089546442 
      0.439572542906       0.656449019909       0.311933159828 
      0.642480611801       0.325857877731       0.325868159533 
      0.708267152309       0.260062843561       0.260105937719 
      0.528743922710       0.311928570271       0.311924934387 
      0.656415820122       0.656446039677       0.528802871704 
      0.311896145344       0.656446039677       0.439607471228 
      0.656413555145       0.311932295561       0.439599990845 
      0.311900645494       0.311931550503       0.528800666332 
      0.656415820122       0.528773069382       0.656477212906 
      0.656421780586       0.439603775740       0.311929404736 
      0.311892449856       0.439598560333       0.656473517418 
      0.311894685030       0.528773069382       0.311924934387 
