&CONTROL
   calculation      = 'relax'
   restart_mode     = 'from_scratch'
   nstep            = 1000
   tprnfor          = .true.
   etot_conv_thr    = 0.0001
   forc_conv_thr    = 0.001
/
&SYSTEM
   tot_magnetization = 0
   ecutwfc          = 50
   ecutrho          = 400
   occupations      = 'smearing'
   degauss          = 0.0001
   smearing         = 'gaussian'
   nspin            = 2
   input_dft        = 'pbe'
   ntyp             = 3
   nat              = 147
   ibrav            = 0
/
&ELECTRONS
   electron_maxstep = 100
   scf_must_converge = .false.
   conv_thr         = 1e-06
   mixing_mode      = 'plain'
   mixing_beta      = 0.3
   diagonalization  = 'david'
/
&IONS
   ion_dynamics     = 'bfgs'
   bfgs_ndim        = 1
/
&CELL
/
&FCP
/
&RISM
/
ATOMIC_SPECIES
C  12.011 C.pbe-n-kjpaw_psl.1.0.0.UPF
O  15.999 O.pbe-n-kjpaw_psl.0.1.UPF
H  1.008 H.pbe-rrkjus_psl.1.0.0.UPF

K_POINTS gamma

CELL_PARAMETERS angstrom
21.88400000000000 0.00000000000000 0.00000000000000
0.00000000000000 21.88600000000000 0.00000000000000
0.00000000000000 0.00000000000000 21.88500000000000

ATOMIC_POSITIONS angstrom
C  19.4660000000 1.6040000000 1.6040000000  
C  12.5470000000 8.5240000000 8.5240000000  
C  12.5460000000 8.5240000000 1.6040000000  
C  19.4660000000 1.6050000000 8.5240000000  
C  12.5470000000 1.6040000000 8.5240000000  
C  19.4660000000 8.5240000000 1.6050000000  
C  19.4660000000 8.5240000000 8.5240000000  
C  12.5470000000 1.6040000000 1.6050000000  
C  8.5240000000 12.5470000000 12.5470000000  
C  1.6040000000 19.4660000000 19.4660000000  
C  1.6050000000 19.4660000000 12.5470000000  
C  8.5240000000 12.5470000000 19.4660000000  
C  1.6050000000 12.5470000000 19.4660000000  
C  8.5240000000 19.4670000000 12.5470000000  
C  8.5240000000 19.4670000000 19.4660000000  
C  1.6050000000 12.5470000000 12.5470000000  
C  21.0480000000 0.0230000000 0.0220000000  
C  10.9650000000 10.1060000000 10.1060000000  
C  10.9650000000 10.1060000000 0.0240000000  
C  21.0480000000 0.0240000000 10.1070000000  
C  10.9650000000 0.0220000000 10.1050000000  
C  21.0480000000 10.1050000000 0.0230000000  
C  21.0470000000 10.1060000000 10.1060000000  
C  10.9650000000 0.0230000000 0.0220000000  
C  10.1050000000 10.9650000000 10.9650000000  
C  0.0230000000 21.0470000000 21.0490000000  
C  0.0230000000 21.0470000000 10.9640000000  
C  10.1060000000 10.9650000000 21.0470000000  
C  0.0230000000 10.9660000000 21.0480000000  
C  10.1060000000 21.0490000000 10.9660000000  
C  10.1060000000 21.0480000000 21.0490000000  
C  0.0240000000 10.9650000000 10.9650000000  
C  16.7530000000 1.2750000000 1.2760000000  
C  15.2600000000 8.8530000000 8.8530000000  
C  15.2600000000 8.8520000000 1.2760000000  
C  16.7530000000 1.2750000000 8.8530000000  
C  15.2600000000 1.2750000000 8.8530000000  
C  16.7530000000 8.8520000000 1.2760000000  
C  16.7530000000 8.8530000000 8.8530000000  
C  15.2600000000 1.2750000000 1.2760000000  
C  19.7950000000 4.3170000000 1.2760000000  
C  12.2180000000 5.8110000000 8.8530000000  
C  19.7950000000 5.8110000000 8.8530000000  
C  12.2180000000 4.3170000000 1.2760000000  
C  12.2180000000 5.8110000000 1.2750000000  
C  19.7950000000 4.3170000000 8.8530000000  
C  12.2180000000 4.3170000000 8.8530000000  
C  19.7950000000 5.8110000000 1.2760000000  
C  19.7950000000 1.2750000000 4.3170000000  
C  12.2180000000 8.8520000000 5.8110000000  
C  12.2180000000 1.2760000000 5.8110000000  
C  19.7950000000 8.8530000000 4.3180000000  
C  19.7950000000 8.8530000000 5.8110000000  
C  12.2180000000 1.2750000000 4.3180000000  
C  12.2180000000 8.8520000000 4.3170000000  
C  19.7950000000 1.2750000000 5.8110000000  
C  5.8110000000 12.2180000000 12.2180000000  
C  4.3170000000 19.7960000000 19.7950000000  
C  4.3180000000 19.7950000000 12.2180000000  
C  5.8110000000 12.2190000000 19.7950000000  
C  4.3180000000 12.2180000000 19.7950000000  
C  5.8110000000 19.7950000000 12.2180000000  
C  5.8110000000 19.7960000000 19.7950000000  
C  4.3180000000 12.2180000000 12.2180000000  
C  8.8530000000 15.2600000000 12.2180000000  
C  1.2760000000 16.7540000000 19.7950000000  
C  8.8530000000 16.7540000000 19.7950000000  
C  1.2760000000 15.2600000000 12.2180000000  
C  1.2760000000 16.7540000000 12.2180000000  
C  8.8530000000 15.2600000000 19.7960000000  
C  1.2760000000 15.2600000000 19.7950000000  
C  8.8530000000 16.7530000000 12.2180000000  
C  8.8530000000 12.2190000000 15.2600000000  
C  1.2760000000 19.7950000000 16.7530000000  
C  1.2760000000 12.2180000000 16.7540000000  
C  8.8530000000 19.7960000000 15.2600000000  
C  8.8530000000 19.7960000000 16.7530000000  
C  1.2760000000 12.2180000000 15.2600000000  
C  1.2760000000 19.7950000000 15.2600000000  
C  8.8530000000 12.2190000000 16.7540000000  
C  17.9520000000 1.3740000000 1.3750000000  
C  14.0610000000 8.7540000000 8.7540000000  
C  14.0600000000 8.7530000000 1.3750000000  
C  17.9520000000 1.3740000000 8.7540000000  
C  14.0600000000 1.3740000000 8.7540000000  
C  17.9520000000 8.7540000000 1.3750000000  
C  17.9520000000 8.7540000000 8.7540000000  
C  14.0610000000 1.3740000000 1.3750000000  
C  19.6960000000 3.1180000000 1.3750000000  
C  12.3170000000 7.0100000000 8.7540000000  
C  19.6960000000 7.0100000000 8.7540000000  
C  12.3170000000 3.1180000000 1.3750000000  
C  12.3170000000 7.0100000000 1.3740000000  
C  19.6950000000 3.1180000000 8.7540000000  
C  12.3170000000 3.1180000000 8.7540000000  
C  19.6960000000 7.0100000000 1.3750000000  
C  19.6960000000 1.3740000000 3.1180000000  
C  12.3170000000 8.7540000000 7.0100000000  
C  12.3170000000 1.3750000000 7.0100000000  
C  19.6960000000 8.7540000000 3.1180000000  
C  19.6960000000 8.7540000000 7.0100000000  
C  12.3170000000 1.3740000000 3.1190000000  
C  12.3170000000 8.7530000000 3.1180000000  
C  19.6960000000 1.3740000000 7.0100000000  
C  7.0100000000 12.3170000000 12.3170000000  
C  3.1180000000 19.6960000000 19.6960000000  
C  3.1190000000 19.6960000000 12.3170000000  
C  7.0110000000 12.3170000000 19.6960000000  
C  3.1190000000 12.3170000000 19.6960000000  
C  7.0100000000 19.6960000000 12.3170000000  
C  7.0100000000 19.6970000000 19.6960000000  
C  3.1180000000 12.3170000000 12.3170000000  
C  8.7540000000 14.0610000000 12.3170000000  
C  1.3750000000 17.9530000000 19.6960000000  
C  8.7540000000 17.9530000000 19.6960000000  
C  1.3750000000 14.0610000000 12.3170000000  
C  1.3750000000 17.9530000000 12.3170000000  
C  8.7540000000 14.0610000000 19.6960000000  
C  1.3750000000 14.0610000000 19.6960000000  
C  8.7540000000 17.9530000000 12.3170000000  
C  8.7540000000 12.3170000000 14.0610000000  
C  1.3750000000 19.6960000000 17.9520000000  
C  1.3750000000 12.3170000000 17.9530000000  
C  8.7540000000 19.6970000000 14.0610000000  
C  8.7540000000 19.6970000000 17.9520000000  
C  1.3750000000 12.3170000000 14.0610000000  
C  1.3750000000 19.6960000000 14.0610000000  
C  8.7540000000 12.3180000000 17.9530000000  
C  20.3500000000 0.7220000000 0.7210000000  
C  11.6640000000 9.4070000000 9.4070000000  
C  11.6630000000 9.4070000000 0.7220000000  
C  20.3500000000 0.7220000000 9.4080000000  
C  11.6630000000 0.7200000000 9.4070000000  
C  20.3500000000 9.4070000000 0.7210000000  
C  20.3490000000 9.4070000000 9.4070000000  
C  11.6640000000 0.7210000000 0.7210000000  
C  9.4070000000 11.6640000000 11.6640000000  
C  0.7210000000 20.3490000000 20.3500000000  
C  0.7210000000 20.3490000000 11.6630000000  
C  9.4080000000 11.6640000000 20.3490000000  
C  0.7210000000 11.6640000000 20.3500000000  
C  9.4070000000 20.3500000000 11.6640000000  
C  9.4070000000 20.3500000000 20.3500000000  
C  0.7220000000 11.6640000000 11.6630000000  
O  21.7210000000 1.0550000000 -0.5330000000  
O  23.2210000000 1.0550000000 -0.5330000000  
H  23.3850000000 1.9990000000 -0.3460000000  

