# File generated with Atomsk by geedai on 2025-05-21 15:50:57
1.000000
     16.11400000        0.00000000        0.00000000
      0.00000000       16.11300000        0.00000000
      0.00000000        0.00000000       16.11200000
 C  O
   200       1
Cartesian
      9.41500000       10.41700000       13.61600000
      8.75400000       10.74100000       12.36600000
      8.75500000        5.36400000        1.21900000
      9.47100000       11.21100000       11.21100000
      5.38400000        5.38400000        5.38400000
     16.09600000        5.62900000        9.43400000
      6.66200000        5.66000000       13.61600000
      7.32300000        5.33600000       12.36600000
      7.32200000       10.71300000        1.21900000
      6.60600000        4.86600000       11.21100000
     10.69300000       10.69300000        5.38400000
     16.09600000       10.44800000        9.43400000
      9.41500000        5.66000000        2.46100000
      8.75400000        5.33600000        3.71100000
      8.75500000       10.71300000       14.85800000
      9.47100000        4.86600000        4.86600000
      5.38400000       10.69300000       10.69300000
     16.09600000       10.44800000        6.64300000
      6.66200000       10.41700000        2.46100000
      7.32300000       10.74100000        3.71100000
      7.32200000        5.36400000       14.85800000
      6.60600000       11.21100000        4.86600000
     10.69300000        5.38400000       10.69300000
     -0.01900000        5.62900000        6.64300000
     13.61600000        9.41500000       10.41700000
     12.36700000        8.75400000       10.74100000
      1.21800000        8.75500000        5.36400000
     11.21200000        9.47100000       11.21100000
      9.43400000       -0.01800000        5.63000000
     13.61600000        6.66200000        5.66000000
     12.36700000        7.32300000        5.33600000
      1.21800000        7.32200000       10.71300000
     11.21200000        6.60600000        4.86600000
      9.43400000       -0.01800000       10.44800000
      2.46100000        9.41500000        5.66000000
      3.71000000        8.75400000        5.33600000
     14.85900000        8.75500000       10.71300000
      4.86500000        9.47100000        4.86600000
      6.64300000       16.09500000       10.44800000
      2.46100000        6.66200000       10.41700000
      3.71000000        7.32300000       10.74100000
     14.85900000        7.32200000        5.36400000
      4.86500000        6.60600000       11.21100000
      6.64300000       16.09500000        5.63000000
     10.41700000       13.61600000        9.41500000
     10.74100000       12.36600000        8.75400000
      5.36400000        1.21900000        8.75500000
     11.21200000       11.21100000        9.47100000
      5.62900000        9.43400000       16.09500000
      5.66000000       13.61600000        6.66200000
      5.33600000       12.36600000        7.32300000
     10.71300000        1.21900000        7.32200000
      4.86500000       11.21100000        6.60600000
     10.44800000        9.43400000       -0.01800000
      5.66000000        2.46100000        9.41500000
      5.33600000        3.71100000        8.75400000
     10.71300000       14.85800000        8.75500000
      4.86500000        4.86600000        9.47100000
     10.44800000        6.64300000       16.09500000
     10.41700000        2.46100000        6.66200000
     10.74100000        3.71100000        7.32300000
      5.36400000       14.85800000        7.32200000
     11.21200000        4.86600000        6.60600000
      5.62900000        6.64300000       -0.01800000
      5.66000000        6.66200000        2.46100000
      5.33600000        7.32300000        3.71100000
     10.71300000        7.32200000       14.85800000
      4.86500000        6.60600000        4.86600000
     10.69300000       10.69300000       10.69300000
     10.44800000       16.09500000        6.64300000
     10.41700000        9.41500000        2.46100000
     10.74100000        8.75400000        3.71100000
      5.36400000        8.75500000       14.85800000
     11.21200000        9.47100000        4.86600000
      5.38400000        5.38400000       10.69300000
      5.62900000       -0.01800000        6.64300000
     10.41700000        6.66200000       13.61600000
     10.74100000        7.32300000       12.36600000
      5.36400000        7.32200000        1.21900000
     11.21200000        6.60600000       11.21100000
      5.38400000       10.69300000        5.38400000
      5.62900000       16.09500000        9.43400000
      5.66000000        9.41500000       13.61600000
      5.33600000        8.75400000       12.36600000
     10.71300000        8.75500000        1.21900000
      4.86500000        9.47100000       11.21100000
     10.69300000        5.38400000        5.38400000
     10.44800000       -0.01800000        9.43400000
      6.66200000        2.46100000        5.66000000
      7.32300000        3.71100000        5.33600000
      7.32200000       14.85800000       10.71300000
      6.60600000        4.86600000        4.86600000
     16.09600000        6.64300000       10.44800000
      9.41500000        2.46100000       10.41700000
      8.75400000        3.71100000       10.74100000
      8.75500000       14.85800000        5.36400000
      9.47100000        4.86600000       11.21100000
     -0.01900000        6.64300000        5.63000000
      6.66200000       13.61600000       10.41700000
      7.32300000       12.36600000       10.74100000
      7.32200000        1.21900000        5.36400000
      6.60600000       11.21100000       11.21100000
     -0.01900000        9.43400000        5.63000000
      9.41500000       13.61600000        5.66000000
      8.75400000       12.36600000        5.33600000
      8.75500000        1.21900000       10.71300000
      9.47100000       11.21100000        4.86600000
     16.09600000        9.43400000       10.44800000
      2.46100000        5.66000000        6.66200000
      3.71000000        5.33600000        7.32300000
     14.85900000       10.71300000        7.32200000
      4.86500000        4.86600000        6.60600000
      6.64300000       10.44800000       -0.01800000
      2.46100000       10.41700000        9.41500000
      3.71000000       10.74100000        8.75400000
     14.85900000        5.36400000        8.75500000
      4.86500000       11.21100000        9.47100000
      6.64300000        5.62900000       -0.01800000
     13.61600000       10.41700000        6.66200000
     12.36700000       10.74100000        7.32300000
      1.21800000        5.36400000        7.32200000
     11.21200000       11.21100000        6.60600000
      9.43400000        5.62900000       -0.01800000
     13.61600000        5.66000000        9.41500000
     12.36700000        5.33600000        8.75400000
      1.21800000       10.71300000        8.75500000
     11.21200000        4.86600000        9.47100000
      9.43400000       10.44800000       -0.01800000
      6.66200000        5.66000000        2.46100000
      7.32300000        5.33600000        3.71100000
      7.32200000       10.71300000       14.85800000
      9.41500000       10.41700000        2.46100000
      8.75400000       10.74100000        3.71100000
      8.75500000        5.36400000       14.85800000
      6.66200000       10.41700000       13.61600000
      7.32300000       10.74100000       12.36600000
      7.32200000        5.36400000        1.21900000
      9.41500000        5.66000000       13.61600000
      8.75400000        5.33600000       12.36600000
      8.75500000       10.71300000        1.21900000
      2.46100000        6.66200000        5.66000000
      3.71000000        7.32300000        5.33600000
     14.85900000        7.32200000       10.71300000
      2.46100000        9.41500000       10.41700000
      3.71000000        8.75400000       10.74100000
     14.85900000        8.75500000        5.36400000
     13.61600000        6.66200000       10.41700000
     12.36700000        7.32300000       10.74100000
      1.21800000        7.32200000        5.36400000
     13.61600000        9.41500000        5.66000000
     12.36700000        8.75400000        5.33600000
      1.21800000        8.75500000       10.71300000
      5.66000000        2.46100000        6.66200000
      5.33600000        3.71100000        7.32300000
     10.71300000       14.85800000        7.32200000
     10.41700000        2.46100000        9.41500000
     10.74100000        3.71100000        8.75400000
      5.36400000       14.85800000        8.75500000
     10.41700000       13.61600000        6.66200000
     10.74100000       12.36600000        7.32300000
      5.36400000        1.21900000        7.32200000
      5.66000000       13.61600000        9.41500000
      5.33600000       12.36600000        8.75400000
     10.71300000        1.21900000        8.75500000
     10.41700000        9.41500000       13.61600000
     10.74100000        8.75400000       12.36600000
      5.36400000        8.75500000        1.21900000
      5.66000000        6.66200000       13.61600000
      5.33600000        7.32300000       12.36600000
     10.71300000        7.32200000        1.21900000
      5.66000000        9.41500000        2.46100000
      5.33600000        8.75400000        3.71100000
     10.71300000        8.75500000       14.85800000
     10.41700000        6.66200000        2.46100000
     10.74100000        7.32300000        3.71100000
      5.36400000        7.32200000       14.85800000
      9.41500000       13.61600000       10.41700000
      8.75400000       12.36600000       10.74100000
      8.75500000        1.21900000        5.36400000
      6.66200000       13.61600000        5.66000000
      7.32300000       12.36600000        5.33600000
      7.32200000        1.21900000       10.71300000
      9.41500000        2.46100000        5.66000000
      8.75400000        3.71100000        5.33600000
      8.75500000       14.85800000       10.71300000
      6.66200000        2.46100000       10.41700000
      7.32300000        3.71100000       10.74100000
      7.32200000       14.85800000        5.36400000
     13.61600000       10.41700000        9.41500000
     12.36700000       10.74100000        8.75400000
      1.21800000        5.36400000        8.75500000
     13.61600000        5.66000000        6.66200000
     12.36700000        5.33600000        7.32300000
      1.21800000       10.71300000        7.32200000
      2.46100000        5.66000000        9.41500000
      3.71000000        5.33600000        8.75400000
     14.85900000       10.71300000        8.75500000
      2.46100000       10.41700000        6.66200000
      3.71000000       10.74100000        7.32300000
     14.85900000        5.36400000        7.32200000
      8.75400000       12.09100000       12.36600000
