&CONTROL
   calculation      = 'relax'
   restart_mode     = 'from_scratch'
   nstep            = 1000
   tprnfor          = .true.
   etot_conv_thr    = 0.0001
   forc_conv_thr    = 0.001
/
&SYSTEM
   tot_magnetization = 0
   ecutwfc          = 50
   ecutrho          = 400
   occupations      = 'smearing'
   degauss          = 0.0001
   smearing         = 'gaussian'
   nspin            = 2
   input_dft        = 'pbe'
   ntyp             = 2
   nat              = 65
   ibrav            = 0
/
&ELECTRONS
   electron_maxstep = 100
   scf_must_converge = .false.
   conv_thr         = 1e-06
   mixing_mode      = 'plain'
   mixing_beta      = 0.3
   diagonalization  = 'david'
/
&IONS
   ion_dynamics     = 'bfgs'
   bfgs_ndim        = 1
/
&CELL
/
&FCP
/
&RISM
/
ATOMIC_SPECIES
C  12.011 C.pbe-n-kjpaw_psl.1.0.0.UPF
O  15.999 O.pbe-n-kjpaw_psl.0.1.UPF

K_POINTS gamma

CELL_PARAMETERS angstrom
14.19000000000000 0.00000000000000 0.00000000000000
0.00000000000000 14.19000000000000 0.00000000000000
0.00000000000000 0.00000000000000 14.19000000000000

ATOMIC_POSITIONS angstrom
C  0.7590000000 9.1930000000 9.1930000000  
C  0.0560000000 9.8960000000 9.8960000000  
C  2.0980000000 7.8540000000 9.1930000000  
C  2.8010000000 7.1510000000 9.8960000000  
C  0.7590000000 7.8540000000 7.8540000000  
C  0.0560000000 7.1510000000 7.1510000000  
C  2.0980000000 9.1930000000 7.8540000000  
C  2.8010000000 9.8960000000 7.1510000000  
C  9.1930000000 0.7590000000 9.1930000000  
C  9.8960000000 0.0560000000 9.8960000000  
C  9.1930000000 2.0980000000 7.8540000000  
C  9.8960000000 2.8010000000 7.1510000000  
C  7.8540000000 0.7590000000 7.8540000000  
C  7.1510000000 0.0560000000 7.1510000000  
C  7.8540000000 2.0980000000 9.1930000000  
C  7.1510000000 2.8010000000 9.8960000000  
C  9.1930000000 9.1930000000 0.7590000000  
C  9.8960000000 9.8960000000 0.0560000000  
C  7.8540000000 9.1930000000 2.0980000000  
C  7.1510000000 9.8960000000 2.8010000000  
C  7.8540000000 7.8540000000 0.7590000000  
C  7.1510000000 7.1510000000 0.0560000000  
C  9.1930000000 7.8540000000 2.0980000000  
C  9.8960000000 7.1510000000 2.8010000000  
C  4.3070000000 12.7410000000 4.3070000000  
C  3.6040000000 13.4430000000 3.6040000000  
C  5.6460000000 11.4010000000 4.3070000000  
C  6.3480000000 10.6990000000 3.6040000000  
C  5.6460000000 12.7410000000 5.6460000000  
C  6.3480000000 13.4430000000 6.3480000000  
C  4.3070000000 11.4010000000 5.6460000000  
C  3.6040000000 10.6990000000 6.3480000000  
C  12.7410000000 4.3070000000 4.3070000000  
C  13.4430000000 3.6040000000 3.6040000000  
C  11.4010000000 4.3070000000 5.6460000000  
C  10.6990000000 3.6040000000 6.3480000000  
C  12.7410000000 5.6460000000 5.6460000000  
C  13.4430000000 6.3480000000 6.3480000000  
C  11.4010000000 5.6460000000 4.3070000000  
C  10.6990000000 6.3480000000 3.6040000000  
C  4.3070000000 4.3070000000 12.7410000000  
C  3.6040000000 3.6040000000 13.4430000000  
C  4.3070000000 5.6460000000 11.4010000000  
C  3.6040000000 6.3480000000 10.6990000000  
C  5.6460000000 5.6460000000 12.7410000000  
C  6.3480000000 6.3480000000 13.4430000000  
C  5.6460000000 4.3070000000 11.4010000000  
C  6.3480000000 3.6040000000 10.6990000000  
C  12.7410000000 12.7410000000 12.7410000000  
C  13.4430000000 13.4430000000 13.4430000000  
C  12.7400000000 11.4010000000 11.4010000000  
C  13.4430000000 10.6990000000 10.6990000000  
C  11.4010000000 11.4010000000 12.7410000000  
C  10.6990000000 10.6990000000 13.4430000000  
C  11.4010000000 12.7400000000 11.4010000000  
C  10.6990000000 13.4430000000 10.6990000000  
C  2.0980000000 0.7590000000 2.0980000000  
C  2.8010000000 0.0560000000 2.8010000000  
C  0.7590000000 0.7590000000 0.7590000000  
C  0.0560000000 0.0560000000 0.0560000000  
C  0.7590000000 2.0980000000 2.0980000000  
C  0.0560000000 2.8010000000 2.8010000000  
C  2.0980000000 2.0980000000 0.7590000000  
C  2.8010000000 2.8010000000 0.0560000000  
O  6.3480000000 7.6980000000 13.4430000000  

