# File generated with Atomsk by geedai on 2025-05-21 15:44:57
1.000000
     13.41600000        0.00000000        0.00000000
      0.00000000       13.41600000        0.00000000
      0.00000000        0.00000000       13.41500000
 C  H
    80       1
Cartesian
     11.08000000       11.07900000       11.07900000
     10.19700000       10.19700000       10.19700000
     10.89300000       12.60500000       10.89200000
      1.91200000        1.91200000       11.07900000
      2.79400000        2.79400000       10.19700000
      2.09900000        0.38600000       10.89200000
     11.08000000        1.91200000        1.91200000
     10.19700000        2.79400000        2.79500000
     10.89300000        0.38600000        2.09900000
      1.91100000       11.07900000        1.91200000
      2.79400000       10.19700000        2.79500000
      2.09900000       12.60500000        2.09900000
     10.89300000       10.89200000       12.60500000
     10.89300000        2.09900000        0.38600000
      2.09900000       10.89200000        0.38600000
      2.09800000        2.09900000       12.60500000
     12.60600000       10.89200000       10.89200000
      0.38600000       10.89200000        2.09900000
      0.38600000        2.09900000       10.89200000
     12.60600000        2.09900000        2.09900000
      1.91200000        1.91200000        1.91200000
      2.79400000        2.79400000        2.79500000
      0.38600000        2.09900000        2.09900000
     11.08000000       11.08000000        1.91200000
     10.19700000       10.19700000        2.79500000
     12.60600000       10.89200000        2.09900000
     11.08000000        1.91200000       11.07900000
     10.19700000        2.79400000       10.19700000
     12.60600000        2.09900000       10.89200000
      1.91100000       11.07900000       11.07900000
      2.79400000       10.19700000       10.19700000
      0.38600000       10.89200000       10.89200000
      2.09800000        2.09900000        0.38600000
     10.89300000        2.09900000       12.60500000
      2.09900000       10.89200000       12.60500000
     10.89300000       10.89200000        0.38600000
      2.09900000        0.38600000        2.09900000
      2.09900000       12.60500000       10.89200000
     10.89300000       12.60500000        2.09900000
     10.89300000        0.38600000       10.89200000
      4.37100000        4.37200000        4.37200000
      3.48900000        3.48900000        3.48900000
      4.18400000        5.89700000        4.18500000
      8.62000000        8.62000000        4.37200000
      9.50200000        9.50200000        3.48900000
      8.80700000        7.09400000        4.18500000
      4.37200000        8.62000000        8.62000000
      3.48900000        9.50200000        9.50200000
      4.18400000        7.09400000        8.80700000
      8.62000000        4.37200000        8.62000000
      9.50200000        3.48900000        9.50200000
      8.80700000        5.89700000        8.80700000
      4.18500000        4.18500000        5.89800000
      4.18400000        8.80700000        7.09400000
      8.80700000        4.18500000        7.09400000
      8.80700000        8.80700000        5.89800000
      5.89700000        4.18500000        4.18500000
      7.09400000        4.18500000        8.80700000
      7.09400000        8.80700000        4.18500000
      5.89700000        8.80700000        8.80700000
      8.62000000        8.62000000        8.62000000
      9.50200000        9.50200000        9.50200000
      7.09400000        8.80700000        8.80700000
      4.37100000        4.37200000        8.62000000
      3.48900000        3.48900000        9.50200000
      5.89700000        4.18500000        8.80700000
      4.37200000        8.62000000        4.37100000
      3.48900000        9.50200000        3.48900000
      5.89700000        8.80700000        4.18500000
      8.62000000        4.37200000        4.37200000
      9.50200000        3.48900000        3.48900000
      7.09400000        4.18500000        4.18500000
      8.80700000        8.80700000        7.09400000
      4.18500000        8.80700000        5.89700000
      8.80700000        4.18500000        5.89700000
      4.18500000        4.18500000        7.09400000
      8.80700000        7.09400000        8.80700000
      8.80700000        5.89800000        4.18500000
      4.18400000        5.89700000        8.80700000
      4.18500000        7.09400000        4.18500000
     11.99300000       12.60500000       10.89200000
