# File generated with Atomsk by geedai on 2025-05-21 14:51:01
1.000000
     21.88400000        0.00000000        0.00000000
      0.00000000       21.88600000        0.00000000
      0.00000000        0.00000000       21.88500000
 C  O
   144       1
Cartesian
     19.46600000        1.60400000        1.60400000
     12.54700000        8.52400000        8.52400000
     12.54600000        8.52400000        1.60400000
     19.46600000        1.60500000        8.52400000
     12.54700000        1.60400000        8.52400000
     19.46600000        8.52400000        1.60500000
     19.46600000        8.52400000        8.52400000
     12.54700000        1.60400000        1.60500000
      8.52400000       12.54700000       12.54700000
      1.60400000       19.46600000       19.46600000
      1.60500000       19.46600000       12.54700000
      8.52400000       12.54700000       19.46600000
      1.60500000       12.54700000       19.46600000
      8.52400000       19.46700000       12.54700000
      8.52400000       19.46700000       19.46600000
      1.60500000       12.54700000       12.54700000
     21.04800000        0.02300000        0.02200000
     10.96500000       10.10600000       10.10600000
     10.96500000       10.10600000        0.02400000
     21.04800000        0.02400000       10.10700000
     10.96500000        0.02200000       10.10500000
     21.04800000       10.10500000        0.02300000
     21.04700000       10.10600000       10.10600000
     10.96500000        0.02300000        0.02200000
     10.10500000       10.96500000       10.96500000
      0.02300000       21.04700000       21.04900000
      0.02300000       21.04700000       10.96400000
     10.10600000       10.96500000       21.04700000
      0.02300000       10.96600000       21.04800000
     10.10600000       21.04900000       10.96600000
     10.10600000       21.04800000       21.04900000
      0.02400000       10.96500000       10.96500000
     16.75300000        1.27500000        1.27600000
     15.26000000        8.85300000        8.85300000
     15.26000000        8.85200000        1.27600000
     16.75300000        1.27500000        8.85300000
     15.26000000        1.27500000        8.85300000
     16.75300000        8.85200000        1.27600000
     16.75300000        8.85300000        8.85300000
     15.26000000        1.27500000        1.27600000
     19.79500000        4.31700000        1.27600000
     12.21800000        5.81100000        8.85300000
     19.79500000        5.81100000        8.85300000
     12.21800000        4.31700000        1.27600000
     12.21800000        5.81100000        1.27500000
     19.79500000        4.31700000        8.85300000
     12.21800000        4.31700000        8.85300000
     19.79500000        5.81100000        1.27600000
     19.79500000        1.27500000        4.31700000
     12.21800000        8.85200000        5.81100000
     12.21800000        1.27600000        5.81100000
     19.79500000        8.85300000        4.31800000
     19.79500000        8.85300000        5.81100000
     12.21800000        1.27500000        4.31800000
     12.21800000        8.85200000        4.31700000
     19.79500000        1.27500000        5.81100000
      5.81100000       12.21800000       12.21800000
      4.31700000       19.79600000       19.79500000
      4.31800000       19.79500000       12.21800000
      5.81100000       12.21900000       19.79500000
      4.31800000       12.21800000       19.79500000
      5.81100000       19.79500000       12.21800000
      5.81100000       19.79600000       19.79500000
      4.31800000       12.21800000       12.21800000
      8.85300000       15.26000000       12.21800000
      1.27600000       16.75400000       19.79500000
      8.85300000       16.75400000       19.79500000
      1.27600000       15.26000000       12.21800000
      1.27600000       16.75400000       12.21800000
      8.85300000       15.26000000       19.79600000
      1.27600000       15.26000000       19.79500000
      8.85300000       16.75300000       12.21800000
      8.85300000       12.21900000       15.26000000
      1.27600000       19.79500000       16.75300000
      1.27600000       12.21800000       16.75400000
      8.85300000       19.79600000       15.26000000
      8.85300000       19.79600000       16.75300000
      1.27600000       12.21800000       15.26000000
      1.27600000       19.79500000       15.26000000
      8.85300000       12.21900000       16.75400000
     17.95200000        1.37400000        1.37500000
     14.06100000        8.75400000        8.75400000
     14.06000000        8.75300000        1.37500000
     17.95200000        1.37400000        8.75400000
     14.06000000        1.37400000        8.75400000
     17.95200000        8.75400000        1.37500000
     17.95200000        8.75400000        8.75400000
     14.06100000        1.37400000        1.37500000
     19.69600000        3.11800000        1.37500000
     12.31700000        7.01000000        8.75400000
     19.69600000        7.01000000        8.75400000
     12.31700000        3.11800000        1.37500000
     12.31700000        7.01000000        1.37400000
     19.69500000        3.11800000        8.75400000
     12.31700000        3.11800000        8.75400000
     19.69600000        7.01000000        1.37500000
     19.69600000        1.37400000        3.11800000
     12.31700000        8.75400000        7.01000000
     12.31700000        1.37500000        7.01000000
     19.69600000        8.75400000        3.11800000
     19.69600000        8.75400000        7.01000000
     12.31700000        1.37400000        3.11900000
     12.31700000        8.75300000        3.11800000
     19.69600000        1.37400000        7.01000000
      7.01000000       12.31700000       12.31700000
      3.11800000       19.69600000       19.69600000
      3.11900000       19.69600000       12.31700000
      7.01100000       12.31700000       19.69600000
      3.11900000       12.31700000       19.69600000
      7.01000000       19.69600000       12.31700000
      7.01000000       19.69700000       19.69600000
      3.11800000       12.31700000       12.31700000
      8.75400000       14.06100000       12.31700000
      1.37500000       17.95300000       19.69600000
      8.75400000       17.95300000       19.69600000
      1.37500000       14.06100000       12.31700000
      1.37500000       17.95300000       12.31700000
      8.75400000       14.06100000       19.69600000
      1.37500000       14.06100000       19.69600000
      8.75400000       17.95300000       12.31700000
      8.75400000       12.31700000       14.06100000
      1.37500000       19.69600000       17.95200000
      1.37500000       12.31700000       17.95300000
      8.75400000       19.69700000       14.06100000
      8.75400000       19.69700000       17.95200000
      1.37500000       12.31700000       14.06100000
      1.37500000       19.69600000       14.06100000
      8.75400000       12.31800000       17.95300000
     20.35000000        0.72200000        0.72100000
     11.66400000        9.40700000        9.40700000
     11.66300000        9.40700000        0.72200000
     20.35000000        0.72200000        9.40800000
     11.66300000        0.72000000        9.40700000
     20.35000000        9.40700000        0.72100000
     20.34900000        9.40700000        9.40700000
     11.66400000        0.72100000        0.72100000
      9.40700000       11.66400000       11.66400000
      0.72100000       20.34900000       20.35000000
      0.72100000       20.34900000       11.66300000
      9.40800000       11.66400000       20.34900000
      0.72100000       11.66400000       20.35000000
      9.40700000       20.35000000       11.66400000
      9.40700000       20.35000000       20.35000000
      0.72200000       11.66400000       11.66300000
     20.79000000        1.90100000        1.56400000
