1   
      1.000000000000
     16.186059951782        0.000000000000        0.000000000000
      0.000000000000       16.186059951782        0.000000000000
      0.000000000000        0.000000000000       16.186059951782
C
96 
Direct
      0.120565474033       0.120565474033       0.120560534298 
      0.861593246460       0.861587047577       0.861587047577 
      0.861599445343       0.861587047577       0.120570421219 
      0.120560534298       0.120563618839       0.861587047577 
      0.861593246460       0.120569184422       0.861593246460 
      0.120563000441       0.861587047577       0.120561763644 
      0.120570421219       0.861593246460       0.861599445343 
      0.861587047577       0.120564237237       0.120560534298 
      0.620564877987       0.620564877987       0.620558679104 
      0.361589521170       0.361589521170       0.361594468355 
      0.361589521170       0.361588925123       0.620564877987 
      0.620564877987       0.620564877987       0.361594468355 
      0.361587703228       0.620558679104       0.361588925123 
      0.620558679104       0.361588329077       0.620564877987 
      0.620571017265       0.361593872309       0.361591368914 
      0.361590772867       0.620558679104       0.620564877987 
      0.215840041637       0.215840041637       0.215827077627 
      0.766319930553       0.766313731670       0.766319930553 
      0.766326069832       0.766313731670       0.215838819742 
      0.215832635760       0.215836346149       0.766319930553 
      0.766326069832       0.215839445591       0.766319930553 
      0.215833872557       0.766313731670       0.215833246708 
      0.215840667486       0.766319930553       0.766319930553 
      0.766313731670       0.215835735202       0.215832009912 
      0.715838193893       0.715838193893       0.715825855732 
      0.266316175461       0.266316175461       0.266324847937 
      0.266320526600       0.266319900751       0.715838193893 
      0.715838193893       0.715838193893       0.266325473785 
      0.266316175461       0.715832054615       0.266316801310 
      0.715832054615       0.266313701868       0.715838193893 
      0.715844392776       0.266324222088       0.266319900751 
      0.266316175461       0.715832054615       0.715838193893 
      0.027754500508       0.142122909427       0.142123535275 
      0.954401493073       0.840031504631       0.840031504631 
      0.954401493073       0.840031504631       0.142122298479 
      0.027755180374       0.142122909427       0.840031504631 
      0.954401493073       0.142122909427       0.840031504631 
      0.027755117044       0.840031504631       0.142121672630 
      0.027754746377       0.840031504631       0.840031504631 
      0.954401493073       0.142123535275       0.142123535275 
      0.142122909427       0.027754500508       0.142123535275 
      0.840031504631       0.954401493073       0.840031504631 
      0.142122909427       0.954401493073       0.840031504631 
      0.840031504631       0.027754994109       0.142121672630 
      0.840031504631       0.954401493073       0.142122298479 
      0.142122909427       0.027755117044       0.840031504631 
      0.840031504631       0.027754871175       0.840031504631 
      0.142123535275       0.954401493073       0.142123535275 
      0.142122298479       0.142122298479       0.027755796909 
      0.840031504631       0.840031504631       0.954401493073 
      0.840037643909       0.142119824886       0.954401493073 
      0.142123535275       0.840031504631       0.027755303308 
      0.142119824886       0.840037643909       0.954401493073 
      0.840031504631       0.142123535275       0.027755303308 
      0.840031504631       0.840031504631       0.027756167576 
      0.142121672630       0.142121672630       0.954401493073 
      0.527755379677       0.642120480537       0.642120480537 
      0.454399019480       0.340030848980       0.340029001236 
      0.454399019480       0.340030848980       0.642126619816 
      0.527754724026       0.642120480537       0.340031474829 
      0.454398423433       0.642120480537       0.340030848980 
      0.527754724026       0.340033322573       0.642120480537 
      0.527754724026       0.340031474829       0.340029627085 
      0.454399019480       0.642126619816       0.642126619816 
      0.642120480537       0.527754724026       0.642120480537 
      0.340030848980       0.454399019480       0.340029001236 
      0.642120480537       0.454398423433       0.340030848980 
      0.340033322573       0.527754724026       0.642120480537 
      0.340030848980       0.454399019480       0.642126619816 
      0.642120480537       0.527754724026       0.340031474829 
      0.340031474829       0.527754724026       0.340030252934 
      0.642126619816       0.454399019480       0.642126619816 
      0.642120480537       0.642120480537       0.527755379677 
      0.340035200119       0.340035200119       0.454400897026 
      0.340032100677       0.642120480537       0.454399019480 
      0.642126619816       0.340031474829       0.527755379677 
      0.642120480537       0.340032100677       0.454399019480 
      0.340031474829       0.642126619816       0.527755379677 
      0.340033948421       0.340033948421       0.527757227421 
      0.642120480537       0.642120480537       0.454399019480 
      0.172238945961       0.172238945961       0.172248825431 
      0.809900641441       0.809919118881       0.809919118881 
      0.809894442558       0.809919118881       0.172236487269 
      0.172249451280       0.172243282199       0.809919118881 
      0.809900641441       0.172236487269       0.809919118881 
      0.172246992588       0.809919118881       0.172246366739 
      0.172234624624       0.809906780720       0.809912979603 
      0.809919118881       0.172243893147       0.172248825431 
      0.672239005566       0.672239005566       0.672251284122 
      0.309914231300       0.309914231300       0.309909284115 
      0.309905558825       0.309906810522       0.672232806683 
      0.672239005566       0.672239005566       0.309905558825 
      0.309917896986       0.672251284122       0.309915453196 
      0.672251284122       0.309915453196       0.672239005566 
      0.672232806683       0.309903711081       0.309909880161 
      0.309910506010       0.672251284122       0.672232806683 
