&CONTROL
   calculation      = 'relax'
   restart_mode     = 'from_scratch'
   nstep            = 1000
   tprnfor          = .true.
   etot_conv_thr    = 0.0001
   forc_conv_thr    = 0.001
/
&SYSTEM
   tot_magnetization = 0
   ecutwfc          = 50
   ecutrho          = 400
   occupations      = 'smearing'
   degauss          = 0.0001
   smearing         = 'gaussian'
   nspin            = 2
   input_dft        = 'pbe'
   ntyp             = 3
   nat              = 83
   ibrav            = 0
/
&ELECTRONS
   electron_maxstep = 100
   scf_must_converge = .false.
   conv_thr         = 1e-06
   mixing_mode      = 'plain'
   mixing_beta      = 0.3
   diagonalization  = 'david'
/
&IONS
   ion_dynamics     = 'bfgs'
   bfgs_ndim        = 1
/
&CELL
/
&FCP
/
&RISM
/
ATOMIC_SPECIES
C  12.011 C.pbe-n-kjpaw_psl.1.0.0.UPF
O  15.999 O.pbe-n-kjpaw_psl.0.1.UPF
H  1.008 H.pbe-rrkjus_psl.1.0.0.UPF

K_POINTS gamma

CELL_PARAMETERS angstrom
13.41600000000000 0.00000000000000 0.00000000000000
0.00000000000000 13.41600000000000 0.00000000000000
0.00000000000000 0.00000000000000 13.41500000000000

ATOMIC_POSITIONS angstrom
C  11.0800000000 11.0790000000 11.0790000000  
C  10.1970000000 10.1970000000 10.1970000000  
C  10.8930000000 12.6050000000 10.8920000000  
C  1.9120000000 1.9120000000 11.0790000000  
C  2.7940000000 2.7940000000 10.1970000000  
C  2.0990000000 0.3860000000 10.8920000000  
C  11.0800000000 1.9120000000 1.9120000000  
C  10.1970000000 2.7940000000 2.7950000000  
C  10.8930000000 0.3860000000 2.0990000000  
C  1.9110000000 11.0790000000 1.9120000000  
C  2.7940000000 10.1970000000 2.7950000000  
C  2.0990000000 12.6050000000 2.0990000000  
C  10.8930000000 10.8920000000 12.6050000000  
C  10.8930000000 2.0990000000 0.3860000000  
C  2.0990000000 10.8920000000 0.3860000000  
C  2.0980000000 2.0990000000 12.6050000000  
C  12.6060000000 10.8920000000 10.8920000000  
C  0.3860000000 10.8920000000 2.0990000000  
C  0.3860000000 2.0990000000 10.8920000000  
C  12.6060000000 2.0990000000 2.0990000000  
C  1.9120000000 1.9120000000 1.9120000000  
C  2.7940000000 2.7940000000 2.7950000000  
C  0.3860000000 2.0990000000 2.0990000000  
C  11.0800000000 11.0800000000 1.9120000000  
C  10.1970000000 10.1970000000 2.7950000000  
C  12.6060000000 10.8920000000 2.0990000000  
C  11.0800000000 1.9120000000 11.0790000000  
C  10.1970000000 2.7940000000 10.1970000000  
C  12.6060000000 2.0990000000 10.8920000000  
C  1.9110000000 11.0790000000 11.0790000000  
C  2.7940000000 10.1970000000 10.1970000000  
C  0.3860000000 10.8920000000 10.8920000000  
C  2.0980000000 2.0990000000 0.3860000000  
C  10.8930000000 2.0990000000 12.6050000000  
C  2.0990000000 10.8920000000 12.6050000000  
C  10.8930000000 10.8920000000 0.3860000000  
C  2.0990000000 0.3860000000 2.0990000000  
C  2.0990000000 12.6050000000 10.8920000000  
C  10.8930000000 12.6050000000 2.0990000000  
C  10.8930000000 0.3860000000 10.8920000000  
C  4.3710000000 4.3720000000 4.3720000000  
C  3.4890000000 3.4890000000 3.4890000000  
C  4.1840000000 5.8970000000 4.1850000000  
C  8.6200000000 8.6200000000 4.3720000000  
C  9.5020000000 9.5020000000 3.4890000000  
C  8.8070000000 7.0940000000 4.1850000000  
C  4.3720000000 8.6200000000 8.6200000000  
C  3.4890000000 9.5020000000 9.5020000000  
C  4.1840000000 7.0940000000 8.8070000000  
C  8.6200000000 4.3720000000 8.6200000000  
C  9.5020000000 3.4890000000 9.5020000000  
C  8.8070000000 5.8970000000 8.8070000000  
C  4.1850000000 4.1850000000 5.8980000000  
C  4.1840000000 8.8070000000 7.0940000000  
C  8.8070000000 4.1850000000 7.0940000000  
C  8.8070000000 8.8070000000 5.8980000000  
C  5.8970000000 4.1850000000 4.1850000000  
C  7.0940000000 4.1850000000 8.8070000000  
C  7.0940000000 8.8070000000 4.1850000000  
C  5.8970000000 8.8070000000 8.8070000000  
C  8.6200000000 8.6200000000 8.6200000000  
C  9.5020000000 9.5020000000 9.5020000000  
C  7.0940000000 8.8070000000 8.8070000000  
C  4.3710000000 4.3720000000 8.6200000000  
C  3.4890000000 3.4890000000 9.5020000000  
C  5.8970000000 4.1850000000 8.8070000000  
C  4.3720000000 8.6200000000 4.3710000000  
C  3.4890000000 9.5020000000 3.4890000000  
C  5.8970000000 8.8070000000 4.1850000000  
C  8.6200000000 4.3720000000 4.3720000000  
C  9.5020000000 3.4890000000 3.4890000000  
C  7.0940000000 4.1850000000 4.1850000000  
C  8.8070000000 8.8070000000 7.0940000000  
C  4.1850000000 8.8070000000 5.8970000000  
C  8.8070000000 4.1850000000 5.8970000000  
C  4.1850000000 4.1850000000 7.0940000000  
C  8.8070000000 7.0940000000 8.8070000000  
C  8.8070000000 5.8980000000 4.1850000000  
C  4.1840000000 5.8970000000 8.8070000000  
C  4.1850000000 7.0940000000 4.1850000000  
O  9.7970000000 11.4360000000 11.3040000000  
O  8.3000000000 11.3480000000 11.4680000000  
H  7.8740000000 12.2180000000 11.5750000000  

