1   
      1.000000000000
     16.514862060547        0.000000000000        0.000000000000
      0.000000000000       16.514862060547        0.000000000000
      0.000000000000        0.000000000000       16.514862060547
C
200 
Direct
      0.570227563381       0.631691575050       0.832032382488 
      0.530343472958       0.655742704868       0.755150139332 
      0.530654191971       0.323727816343       0.063817672431 
      0.576075673103       0.683959662914       0.683959662914 
      0.322441071272       0.322441071272       0.322441071272 
      0.986741542816       0.339591115713       0.571721434593 
      0.403259187937       0.341795176268       0.832032382488 
      0.443143278360       0.317744106054       0.755150139332 
      0.442832648754       0.649760186672       0.063817672431 
      0.397411137819       0.289528310299       0.683959662914 
      0.651043891907       0.651043891907       0.322441071272 
     -0.013256604783       0.633895695210       0.571721434593 
      0.570227563381       0.341795176268       0.141456827521 
      0.530343472958       0.317744106054       0.218334257603 
      0.530654191971       0.649760186672       0.909671545029 
      0.576075673103       0.289528310299       0.289528310299 
      0.322441071272       0.651043891907       0.651043891907 
     -0.013256604783       0.633895695210       0.401765376329 
      0.403259187937       0.631691575050       0.141456827521 
      0.443143278360       0.655742704868       0.218334257603 
      0.442832648754       0.323727816343       0.909671545029 
      0.397411137819       0.683959662914       0.289528310299 
      0.651043891907       0.322441071272       0.651043891907 
      0.986741542816       0.339591115713       0.401765376329 
      0.832032382488       0.570227563381       0.631691575050 
      0.755150139332       0.530343472958       0.655742704868 
      0.063817672431       0.530654191971       0.323727816343 
      0.683959662914       0.576075673103       0.683959662914 
      0.571721434593      -0.013256544247       0.339591115713 
      0.832032382488       0.403259187937       0.341795176268 
      0.755150139332       0.443143278360       0.317744106054 
      0.063817672431       0.442832648754       0.649760186672 
      0.683959662914       0.397411137819       0.289528310299 
      0.571721434593       0.986741542816       0.633895695210 
      0.141456827521       0.570227563381       0.341795176268 
      0.218334257603       0.530343472958       0.317744106054 
      0.909671545029       0.530654191971       0.649760186672 
      0.289528310299       0.576075673103       0.289528310299 
      0.401765376329      -0.013256544247       0.633895695210 
      0.141456827521       0.403259187937       0.631691575050 
      0.218334257603       0.443143278360       0.655742704868 
      0.909671545029       0.442832648754       0.323727816343 
      0.289528310299       0.397411137819       0.683959662914 
      0.401765376329      -0.013256604783       0.339591115713 
      0.631691575050       0.832032382488       0.570227563381 
      0.655742704868       0.755150139332       0.530343472958 
      0.323727816343       0.063817672431       0.530654191971 
      0.683959662914       0.683959662914       0.576075673103 
      0.339591115713       0.571721434593       0.986741542816 
      0.341795176268       0.832032382488       0.403259187937 
      0.317744106054       0.755150139332       0.443143278360 
      0.649760186672       0.063817672431       0.442832648754 
      0.289528310299       0.683959662914       0.397411137819 
      0.633895695210       0.571721434593      -0.013256604783 
      0.341795176268       0.141456827521       0.570227563381 
      0.317744106054       0.218334257603       0.530343472958 
      0.649760186672       0.909671545029       0.530654191971 
      0.289528310299       0.289528310299       0.576075673103 
      0.633895695210       0.401765376329      -0.013256604783 
      0.631691575050       0.141456827521       0.403259187937 
      0.655742704868       0.218334257603       0.443143278360 
      0.323727816343       0.909671545029       0.442832648754 
      0.683959662914       0.289528310299       0.397411137819 
      0.339591115713       0.401765376329      -0.013256544247 
      0.341795176268       0.403259187937       0.141456827521 
      0.317744106054       0.443143278360       0.218334257603 
      0.649760186672       0.442832648754       0.909671545029 
      0.289528310299       0.397411137819       0.289528310299 
      0.651043891907       0.651043891907       0.651043891907 
      0.633895695210      -0.013256544247       0.401765376329 
      0.631691575050       0.570227563381       0.141456827521 
      0.655742704868       0.530343472958       0.218334257603 
      0.323727816343       0.530654191971       0.909671545029 
      0.683959662914       0.576075673103       0.289528310299 
      0.322441071272       0.322441071272       0.651043891907 
      0.339591115713      -0.013256604783       0.401765376329 
      0.631691575050       0.403259187937       0.832032382488 
      0.655742704868       0.443143278360       0.755150139332 
      0.323727816343       0.442832648754       0.063817672431 
      0.683959662914       0.397411137819       0.683959662914 
      0.322441071272       0.651043891907       0.322441071272 
      0.339591115713      -0.013256544247       0.571721434593 
      0.341795176268       0.570227563381       0.832032382488 
      0.317744106054       0.530343472958       0.755150139332 
      0.649760186672       0.530654191971       0.063817672431 
      0.289528310299       0.576075017452       0.683959662914 
      0.651043891907       0.322441071272       0.322441071272 
      0.633895695210       0.986741542816       0.571721434593 
      0.403259187937       0.141456827521       0.341795176268 
      0.443143278360       0.218334257603       0.317744106054 
      0.442832648754       0.909671545029       0.649760186672 
      0.397411137819       0.289528310299       0.289528310299 
     -0.013256544247       0.401765376329       0.633895695210 
      0.570227563381       0.141456827521       0.631691575050 
      0.530343472958       0.218334257603       0.655742704868 
      0.530654191971       0.909671545029       0.323727816343 
      0.576075017452       0.289528310299       0.683959662914 
     -0.013256604783       0.401765376329       0.339591115713 
      0.403259187937       0.832032382488       0.631691575050 
      0.443143278360       0.755150139332       0.655742704868 
      0.442832648754       0.063817672431       0.323727816343 
      0.397411733866       0.683959662914       0.683959662914 
     -0.013256544247       0.571721434593       0.339591115713 
      0.570227563381       0.832032382488       0.341795176268 
      0.530343472958       0.755150139332       0.317744106054 
      0.530654191971       0.063817672431       0.649760186672 
      0.576075017452       0.683959662914       0.289528310299 
      0.986741542816       0.571721434593       0.633895695210 
      0.141456827521       0.341795176268       0.403259187937 
      0.218334257603       0.317744106054       0.443143278360 
      0.909671545029       0.649760186672       0.442832648754 
      0.289528310299       0.289528310299       0.397411137819 
      0.401765376329       0.633895695210       0.986741542816 
      0.141456827521       0.631691575050       0.570227563381 
      0.218334257603       0.655742704868       0.530343472958 
      0.909671545029       0.323727816343       0.530654191971 
      0.289528310299       0.683959662914       0.576075017452 
      0.401765376329       0.339591115713       0.986741542816 
      0.832032382488       0.631691575050       0.403259187937 
      0.755150139332       0.655742704868       0.443143278360 
      0.063817672431       0.323727816343       0.442832648754 
      0.683959662914       0.683959662914       0.397411733866 
      0.571721434593       0.339591115713      -0.013256544247 
      0.832032382488       0.341795176268       0.570227563381 
      0.755150139332       0.317744106054       0.530343472958 
      0.063817672431       0.649760186672       0.530654191971 
      0.683959662914       0.289528310299       0.576075673103 
      0.571721434593       0.633895695210      -0.013256604783 
      0.403259187937       0.341795176268       0.141456827521 
      0.443143278360       0.317744106054       0.218334257603 
      0.442832648754       0.649760186672       0.909671545029 
      0.570227563381       0.631691575050       0.141456827521 
      0.530343472958       0.655742704868       0.218334257603 
      0.530654191971       0.323727816343       0.909671545029 
      0.403259187937       0.631691575050       0.832032382488 
      0.443143278360       0.655742704868       0.755150139332 
      0.442832648754       0.323727816343       0.063817672431 
      0.570227563381       0.341795176268       0.832032382488 
      0.530343472958       0.317744106054       0.755150139332 
      0.530654191971       0.649760186672       0.063817672431 
      0.141456827521       0.403259187937       0.341795176268 
      0.218334257603       0.443143278360       0.317744106054 
      0.909671545029       0.442832648754       0.649760186672 
      0.141456827521       0.570227563381       0.631691575050 
      0.218334257603       0.530343472958       0.655742704868 
      0.909671545029       0.530654191971       0.323727816343 
      0.832032382488       0.403259187937       0.631691575050 
      0.755150139332       0.443143278360       0.655742704868 
      0.063817672431       0.442832648754       0.323727816343 
      0.832032382488       0.570227563381       0.341795176268 
      0.755150139332       0.530343472958       0.317744106054 
      0.063817672431       0.530654191971       0.649760186672 
      0.341795176268       0.141456827521       0.403259187937 
      0.317744106054       0.218334257603       0.443143278360 
      0.649760186672       0.909671545029       0.442832648754 
      0.631691575050       0.141456827521       0.570227563381 
      0.655742704868       0.218334257603       0.530343472958 
      0.323727816343       0.909671545029       0.530654191971 
      0.631691575050       0.832032382488       0.403259187937 
      0.655742704868       0.755150139332       0.443143278360 
      0.323727816343       0.063817672431       0.442832648754 
      0.341795176268       0.832032382488       0.570227563381 
      0.317744106054       0.755150139332       0.530343472958 
      0.649760186672       0.063817672431       0.530654191971 
      0.631691575050       0.570227563381       0.832032382488 
      0.655742704868       0.530343472958       0.755150139332 
      0.323727816343       0.530654191971       0.063817672431 
      0.341795176268       0.403259187937       0.832032382488 
      0.317744106054       0.443143278360       0.755150139332 
      0.649760186672       0.442832648754       0.063817672431 
      0.341795176268       0.570227563381       0.141456827521 
      0.317744106054       0.530343472958       0.218334257603 
      0.649760186672       0.530654191971       0.909671545029 
      0.631691575050       0.403259187937       0.141456827521 
      0.655742704868       0.443143278360       0.218334257603 
      0.323727816343       0.442832648754       0.909671545029 
      0.570227563381       0.832032382488       0.631691575050 
      0.530343472958       0.755150139332       0.655742704868 
      0.530654191971       0.063817672431       0.323727816343 
      0.403259187937       0.832032382488       0.341795176268 
      0.443143278360       0.755150139332       0.317744106054 
      0.442832648754       0.063817672431       0.649760186672 
      0.570227563381       0.141456827521       0.341795176268 
      0.530343472958       0.218334257603       0.317744106054 
      0.530654191971       0.909671545029       0.649760186672 
      0.403259187937       0.141456827521       0.631691575050 
      0.443143278360       0.218334257603       0.655742704868 
      0.442832648754       0.909671545029       0.323727816343 
      0.832032382488       0.631691575050       0.570227563381 
      0.755150139332       0.655742704868       0.530343472958 
      0.063817672431       0.323727816343       0.530654191971 
      0.832032382488       0.341795176268       0.403259187937 
      0.755150139332       0.317744106054       0.443143278360 
      0.063817672431       0.649760186672       0.442832648754 
      0.141456827521       0.341795176268       0.570227563381 
      0.218334257603       0.317744106054       0.530343472958 
      0.909671545029       0.649760186672       0.530654191971 
      0.141456827521       0.631691575050       0.403259187937 
      0.218334257603       0.655742704868       0.443143278360 
      0.909671545029       0.323727816343       0.442832648754 
