1   
      1.000000000000
     34.137569427490        0.000000000000        0.000000000000
      0.000000000000       17.316495895386        0.000000000000
      0.000000000000        0.000000000000        2.498831033707
C
56 
Direct
      0.162419289351      -0.008670633659       0.991327524185 
      0.820239961147       0.991332232952      -0.008670654148 
      0.662402212620       0.491329163313       0.991327524185 
      0.320257127285       0.491329163313       0.991327524185 
      0.138787865639       0.991332232952       0.491329729557 
      0.843870818615       0.991332232952       0.491329729557 
      0.638788878918       0.491329163313       0.491329729557 
      0.343867480755       0.491329163313       0.491329729557 
      0.097656629980       0.991332232952       0.491329729557 
      0.885001480579       0.991332232952       0.491329729557 
      0.597669959068       0.491329163313       0.491329729557 
      0.384989321232       0.491329789162       0.491329729557 
      0.188800200820       0.062231414020       0.991327524185 
      0.793858528137       0.920428693295       0.991327524185 
      0.793858528137       0.062231414020       0.991327524185 
      0.188800200820       0.920428693295       0.991327524185 
      0.688798308372       0.562229216099       0.991327524185 
      0.293858051300       0.420429170132       0.991327524185 
      0.293858051300       0.562229812145       0.991327524185 
      0.688798308372       0.420429170132       0.991327524185 
      0.231636285782       0.203885361552       0.991327524185 
      0.751022994518       0.778771877289       0.991327524185 
      0.751022994518       0.203886523843       0.991327524185 
      0.231635987759       0.778771877289       0.991327524185 
      0.731639683247       0.703901112080       0.991327524185 
      0.251020520926       0.278758466244       0.991327524185 
      0.251020520926       0.703901112080       0.991327524185 
      0.731639683247       0.278759628534       0.991327524185 
      0.199872165918       0.094908922911       0.491329729557 
      0.782785713673       0.887748897076       0.491329729557 
      0.782785713673       0.094908922911       0.491329729557 
      0.199872165918       0.887748897076       0.491329729557 
      0.699874103069       0.594912469387       0.491329729557 
      0.282785505056       0.387746453285       0.491329729557 
      0.282785505056       0.594912469387       0.491329729557 
      0.699874103069       0.387747019529       0.491329729557 
      0.221865817904       0.167529851198       0.491329729557 
      0.760792315006       0.815130293369       0.491329729557 
      0.760792315006       0.167530432343       0.491329729557 
      0.221865817904       0.815130293369       0.491329729557 
      0.721867442131       0.667536854744       0.491329729557 
      0.260792136192       0.315123230219       0.491329729557 
      0.260792136192       0.667536854744       0.491329729557 
      0.721867442131       0.315124392509       0.491329729557 
      0.075863339007       0.991332232952       0.991327524185 
      0.906795620918       0.991332232952      -0.008670654148 
      0.575852334499       0.491329163313      -0.008670654148 
      0.406806915998       0.491329789162       0.991327524185 
      0.033892862499       0.991332232952      -0.008670654148 
      0.948764085770       0.991332232952       0.991327524185 
      0.533869326115       0.491329163313      -0.008670654148 
      0.448789983988       0.491329163313       0.991327524185 
      0.012366287410       0.991332232952       0.491329729557 
      0.970291733742       0.991332232952       0.491329729557 
      0.512359261513       0.491329163313       0.491329729557 
      0.470300018787       0.491329163313       0.491329729557 
