1   
      1.000000000000
     11.069947242737        0.000000000000        0.000000000000
      0.000000000000       11.069947242737        0.000000000000
      0.000000000000        0.000000000000       11.069947242737
C
48 
Direct
      0.561289012432       0.411963135004       0.561300814152 
      0.699623048306       0.273548752069       0.699620306492 
      0.635693192482       0.337516516447       0.635696768761 
      0.411962211132       0.561289012432       0.561300814152 
      0.273549616337       0.699623048306       0.699620306492 
      0.337516516447       0.635693192482       0.635696768761 
      0.561297178268       0.561297178268       0.411960393190 
      0.699621200562       0.699621200562       0.273548752069 
      0.635693192482       0.635693192482       0.337516516447 
      0.411817699671       0.411817699671       0.411802321672 
      0.273502647877       0.273502647877       0.273471921682 
      0.337446063757       0.337446063757       0.337422579527 
      0.561206817627       0.411879122257       0.411889046431 
      0.699615776539       0.273546934128       0.273544222116 
      0.635653436184       0.337473154068       0.337476789951 
      0.411879122257       0.561206817627       0.411888122559 
      0.273546040058       0.699616730213       0.273544222116 
      0.337473154068       0.635653436184       0.337476789951 
      0.411895364523       0.411895364523       0.561220347881 
      0.273547828197       0.273547828197       0.699609458447 
      0.337480366230       0.337480366230       0.635657072067 
      0.561381161213       0.561380267143       0.561360418797 
      0.699680864811       0.699680864811       0.699678122997 
      0.635736525059       0.635736525059       0.635725677013 
      0.061288006604       0.911946475506       0.061293426901 
      0.199625164270       0.773550212383       0.199625164270 
      0.135692611337       0.837510764599       0.135695323348 
      0.911946475506       0.061288457364       0.061290085316 
      0.773550212383       0.199625164270       0.199626073241 
      0.837509810925       0.135694414377       0.135695323348 
      0.061290353537       0.061294417828       0.911955535412 
      0.199626073241       0.199626073241       0.773547530174 
      0.135696232319       0.135698020458       0.837511658669 
      0.911811053753       0.911820054054       0.911820054054 
      0.773497819901       0.773497819901       0.773499608040 
      0.837442994118       0.837443947792       0.837445735931 
      0.061217278242       0.911883234978       0.911892294884 
      0.199638709426       0.773552000523       0.773551166058 
      0.135671839118       0.837478220463       0.837480008602 
      0.911883234978       0.061217095703       0.911892294884 
      0.773555636406       0.199635997415       0.773553848267 
      0.837480962276       0.135670021176       0.837480962276 
      0.911883234978       0.911883234978       0.061223413795 
      0.773550212383       0.773550212383       0.199642330408 
      0.837478220463       0.837477385998       0.135675445199 
      0.061367683113       0.061367318034       0.061357200146 
      0.199664905667       0.199664905667       0.199694707990 
      0.135724231601       0.135724231601       0.135735064745 
