1   
      1.000000000000
      9.898107528687        0.000000000000        0.000000000000
      0.000000000000        9.898107528687        0.000000000000
      0.000000000000        0.000000000000        9.897889137268
C 
40 
Direct
      0.110203891993       0.110203891993       0.110217437148 
      0.020238414407       0.020237505436       0.020251085982 
      0.200227171183       0.200227171183       0.020235931501 
      0.020228412002       0.200234234333       0.200232580304 
      0.200234234333       0.020228412002       0.200232580304 
      0.860263466835       0.860263466835       0.860274374485 
      0.950228154659       0.950228154659       0.950239002705 
      0.770241200924       0.770241200924       0.950255155563 
      0.770234107971       0.950242221355       0.770257174969 
      0.950242221355       0.770234107971       0.770257174969 
      0.360264807940       0.360264807940       0.860267221928 
      0.270241558552       0.270241558552       0.950256168842 
      0.450231522322       0.450231522322       0.950237929821 
      0.450239598751       0.270232468843       0.770259201527 
      0.270232468843       0.450239598751       0.770259201527 
      0.360261797905       0.860258340836       0.360277831554 
      0.270243585110       0.950244247913       0.270248532295 
      0.450240612030       0.770247220993       0.270246505737 
      0.450230509043       0.950225055218       0.450242459774 
      0.270230442286       0.770247220993       0.450248539448 
      0.610203504562       0.610203504562       0.110219463706 
      0.520226716995       0.700235843658       0.200231581926 
      0.700235843658       0.520226716995       0.200231581926 
      0.520239889622       0.520239889622       0.020250579342 
      0.700227797031       0.700227797031       0.020236536860 
      0.860258340836       0.360261797905       0.360277831554 
      0.950244247913       0.270243585110       0.270248532295 
      0.770247220993       0.450240612030       0.270246505737 
      0.770247220993       0.270230442286       0.450248539448 
      0.950225055218       0.450230509043       0.450242459774 
      0.110211983323       0.610211610794       0.610211968422 
      0.020236697048       0.520241856575       0.520249307156 
      0.200220093131       0.700229823589       0.520234167576 
      0.020227402449       0.700225770473       0.700241208076 
      0.200223118067       0.520226716995       0.700244247913 
      0.610211610794       0.110211983323       0.610211968422 
      0.700225770473       0.020227402449       0.700241208076 
      0.520241856575       0.020236697048       0.520249307156 
      0.520226716995       0.200223118067       0.700244247913 
      0.700229823589       0.200220093131       0.520234167576 
