# File generated with Atomsk by geedai on 2025-05-21 15:48:07
1.000000
      9.89800000        0.00000000        0.00000000
      0.00000000        9.89800000        0.00000000
      0.00000000        0.00000000        9.89800000
 C  O  H
    40       2       1
Cartesian
      1.09100000        1.09100000        1.09100000
      0.20000000        0.20000000        0.20000000
      1.98200000        1.98200000        0.20000000
      0.20000000        1.98200000        1.98200000
      1.98200000        0.20000000        1.98200000
      8.51500000        8.51500000        8.51500000
      9.40500000        9.40500000        9.40500000
      7.62400000        7.62400000        9.40600000
      7.62400000        9.40600000        7.62400000
      9.40600000        7.62400000        7.62400000
      3.56600000        3.56600000        8.51500000
      2.67500000        2.67500000        9.40600000
      4.45600000        4.45600000        9.40500000
      4.45700000        2.67500000        7.62400000
      2.67500000        4.45700000        7.62400000
      3.56600000        8.51500000        3.56600000
      2.67500000        9.40600000        2.67500000
      4.45700000        7.62400000        2.67500000
      4.45600000        9.40500000        4.45600000
      2.67500000        7.62400000        4.45700000
      6.04000000        6.04000000        1.09100000
      5.14900000        6.93100000        1.98200000
      6.93100000        5.14900000        1.98200000
      5.14900000        5.14900000        0.20000000
      6.93100000        6.93100000        0.20000000
      8.51500000        3.56600000        3.56600000
      9.40600000        2.67500000        2.67500000
      7.62400000        4.45700000        2.67500000
      7.62400000        2.67500000        4.45700000
      9.40500000        4.45600000        4.45600000
      1.09100000        6.04000000        6.04000000
      0.20000000        5.14900000        5.14900000
      1.98200000        6.93100000        5.14900000
      0.20000000        6.93100000        6.93100000
      1.98200000        5.14900000        6.93100000
      6.04000000        1.09100000        6.04000000
      6.93100000        0.20000000        6.93100000
      5.14900000        0.20000000        5.14900000
      5.14900000        1.98200000        6.93100000
      6.93100000        1.98200000        5.14900000
      0.05600000       -0.15800000        1.49900000
     -1.06000000       -0.35300000        2.50400000
     -0.42800000       -0.30800000        3.24500000
