&CONTROL
   calculation      = 'relax'
   restart_mode     = 'from_scratch'
   nstep            = 1000
   tprnfor          = .true.
   etot_conv_thr    = 0.0001
   forc_conv_thr    = 0.001
/
&SYSTEM
   tot_magnetization = 0
   ecutwfc          = 50
   ecutrho          = 400
   occupations      = 'smearing'
   degauss          = 0.0001
   smearing         = 'gaussian'
   nspin            = 2
   input_dft        = 'pbe'
   ntyp             = 2
   nat              = 321
   ibrav            = 0
/
&ELECTRONS
   electron_maxstep = 100
   scf_must_converge = .false.
   conv_thr         = 1e-06
   mixing_mode      = 'plain'
   mixing_beta      = 0.3
   diagonalization  = 'david'
/
&IONS
   ion_dynamics     = 'bfgs'
   bfgs_ndim        = 1
/
&CELL
/
&FCP
/
&RISM
/
ATOMIC_SPECIES
C  12.011 C.pbe-n-kjpaw_psl.1.0.0.UPF
O  15.999 O.pbe-n-kjpaw_psl.0.1.UPF

K_POINTS gamma

CELL_PARAMETERS angstrom
19.01800000000000 0.00000000000000 0.00000000000000
0.00000000000000 19.01800000000000 0.00000000000000
0.00000000000000 0.00000000000000 19.01800000000000

ATOMIC_POSITIONS angstrom
C  17.5620000000 6.1170000000 4.4330000000  
C  16.2250000000 5.7000000000 4.6640000000  
C  9.9310000000 9.9310000000 0.4220000000  
C  6.1170000000 17.5620000000 4.4330000000  
C  7.4540000000 17.9790000000 4.6640000000  
C  13.7480000000 13.7480000000 0.4220000000  
C  17.5620000000 17.5620000000 0.2280000000  
C  16.2250000000 17.9790000000 -0.0030000000  
C  9.9310000000 13.7480000000 4.2390000000  
C  6.1170000000 6.1170000000 0.2280000000  
C  7.4540000000 5.7000000000 -0.0030000000  
C  13.7480000000 9.9310000000 4.2390000000  
C  4.4330000000 17.5620000000 6.1170000000  
C  4.6640000000 16.2250000000 5.7000000000  
C  0.4220000000 9.9310000000 9.9310000000  
C  4.4330000000 6.1170000000 17.5620000000  
C  4.6640000000 7.4540000000 17.9790000000  
C  0.4220000000 13.7480000000 13.7480000000  
C  0.2280000000 17.5620000000 17.5620000000  
C  -0.0030000000 16.2250000000 17.9790000000  
C  4.2390000000 9.9310000000 13.7480000000  
C  0.2280000000 6.1170000000 6.1170000000  
C  -0.0030000000 7.4540000000 5.7000000000  
C  4.2390000000 13.7480000000 9.9310000000  
C  6.1170000000 4.4330000000 17.5620000000  
C  5.7000000000 4.6640000000 16.2250000000  
C  9.9310000000 0.4220000000 9.9310000000  
C  17.5620000000 4.4330000000 6.1170000000  
C  17.9790000000 4.6640000000 7.4540000000  
C  13.7480000000 0.4220000000 13.7480000000  
C  17.5620000000 0.2280000000 17.5620000000  
C  17.9790000000 -0.0030000000 16.2250000000  
C  13.7480000000 4.2390000000 9.9310000000  
C  6.1170000000 0.2280000000 6.1170000000  
C  5.7000000000 -0.0030000000 7.4540000000  
C  9.9310000000 4.2390000000 13.7480000000  
C  12.8070000000 1.3620000000 14.4910000000  
C  13.2240000000 2.6990000000 14.2600000000  
C  8.9940000000 8.9940000000 18.5020000000  
C  1.3630000000 12.8070000000 14.4910000000  
C  0.9450000000 11.4700000000 14.2600000000  
C  5.1760000000 5.1760000000 18.5020000000  
C  1.3630000000 1.3620000000 18.6960000000  
C  0.9450000000 2.6990000000 18.9270000000  
C  5.1760000000 8.9940000000 14.6850000000  
C  12.8070000000 12.8070000000 18.6960000000  
C  13.2240000000 11.4700000000 18.9270000000  
C  8.9940000000 5.1760000000 14.6850000000  
C  1.3630000000 14.4910000000 12.8070000000  
C  2.6990000000 14.2600000000 13.2240000000  
C  8.9940000000 18.5020000000 8.9940000000  
C  12.8070000000 14.4910000000 1.3630000000  
C  11.4700000000 14.2600000000 0.9450000000  
C  5.1760000000 18.5020000000 5.1760000000  
C  1.3630000000 18.6960000000 1.3630000000  
C  2.6990000000 18.9270000000 0.9450000000  
C  8.9940000000 14.6850000000 5.1760000000  
C  12.8070000000 18.6960000000 12.8070000000  
C  11.4700000000 18.9270000000 13.2240000000  
C  5.1760000000 14.6850000000 8.9940000000  
C  14.4910000000 12.8070000000 1.3630000000  
C  14.2600000000 13.2240000000 2.6990000000  
C  18.5020000000 8.9940000000 8.9940000000  
C  14.4910000000 1.3620000000 12.8070000000  
C  14.2600000000 0.9450000000 11.4700000000  
C  18.5020000000 5.1760000000 5.1760000000  
C  18.6960000000 1.3620000000 1.3630000000  
C  18.9270000000 0.9450000000 2.6990000000  
C  14.6850000000 5.1760000000 8.9940000000  
C  18.6960000000 12.8070000000 12.8070000000  
C  18.9270000000 13.2240000000 11.4700000000  
C  14.6850000000 8.9940000000 5.1760000000  
C  10.8710000000 3.2990000000 14.4910000000  
C  10.4540000000 1.9620000000 14.2600000000  
C  14.6850000000 14.6850000000 18.5020000000  
C  3.2990000000 10.8710000000 14.4910000000  
C  3.7160000000 12.2080000000 14.2600000000  
C  18.5020000000 18.5020000000 18.5020000000  
C  3.2990000000 3.2990000000 18.6960000000  
C  3.7160000000 1.9620000000 18.9270000000  
C  18.5020000000 14.6850000000 14.6850000000  
C  10.8710000000 10.8710000000 18.6960000000  
C  10.4540000000 12.2080000000 18.9270000000  
C  14.6850000000 18.5020000000 14.6850000000  
C  3.2990000000 9.1870000000 12.8070000000  
C  1.9620000000 9.4180000000 13.2240000000  
C  10.8710000000 9.1870000000 1.3630000000  
C  12.2080000000 9.4180000000 0.9450000000  
C  3.2990000000 4.9820000000 1.3630000000  
C  1.9620000000 4.7520000000 0.9450000000  
C  10.8710000000 4.9820000000 12.8070000000  
C  12.2080000000 4.7520000000 13.2240000000  
C  9.1870000000 10.8710000000 1.3630000000  
C  9.4180000000 10.4540000000 2.6990000000  
C  9.1870000000 3.2990000000 12.8070000000  
C  9.4180000000 3.7160000000 11.4700000000  
C  4.9820000000 3.2990000000 1.3630000000  
C  4.7520000000 3.7160000000 2.6990000000  
C  4.9820000000 10.8710000000 12.8070000000  
C  4.7520000000 10.4540000000 11.4700000000  
C  10.8710000000 1.3620000000 9.1870000000  
C  10.4540000000 2.6990000000 9.4180000000  
C  3.2990000000 12.8070000000 9.1870000000  
C  3.7160000000 11.4700000000 9.4180000000  
C  3.2990000000 1.3620000000 4.9820000000  
C  3.7160000000 2.6990000000 4.7520000000  
C  10.8710000000 12.8070000000 4.9820000000  
C  10.4540000000 11.4700000000 4.7520000000  
C  3.2990000000 14.4910000000 10.8710000000  
C  1.9620000000 14.2600000000 10.4540000000  
C  10.8710000000 14.4910000000 3.2990000000  
C  12.2080000000 14.2600000000 3.7160000000  
C  3.2990000000 18.6960000000 3.2990000000  
C  1.9620000000 18.9270000000 3.7160000000  
C  10.8710000000 18.6960000000 10.8710000000  
C  12.2080000000 18.9270000000 10.4540000000  
C  9.1870000000 12.8070000000 3.2990000000  
C  9.4180000000 13.2240000000 1.9620000000  
C  9.1870000000 1.3620000000 10.8710000000  
C  9.4180000000 0.9450000000 12.2080000000  
C  4.9820000000 1.3620000000 3.2990000000  
C  4.7520000000 0.9450000000 1.9620000000  
C  4.9820000000 12.8070000000 10.8710000000  
C  4.7520000000 13.2240000000 12.2080000000  
C  8.0530000000 8.0530000000 0.2280000000  
C  6.7160000000 8.4700000000 -0.0030000000  
C  0.4220000000 4.2390000000 4.2390000000  
C  15.6260000000 15.6260000000 0.2280000000  
C  16.9630000000 15.2090000000 -0.0030000000  
C  4.2390000000 0.4220000000 4.2390000000  
C  8.0530000000 15.6260000000 4.4330000000  
C  6.7160000000 15.2090000000 4.6640000000  
C  0.4220000000 0.4220000000 0.4220000000  
C  15.6260000000 8.0530000000 4.4330000000  
C  16.9630000000 8.4700000000 4.6640000000  
C  4.2390000000 4.2390000000 0.4220000000  
C  13.9420000000 15.6260000000 17.5620000000  
C  14.1730000000 16.9630000000 17.9790000000  
C  13.9420000000 8.0530000000 6.1170000000  
C  14.1730000000 6.7160000000 5.7000000000  
C  9.7370000000 15.6260000000 6.1170000000  
C  9.5060000000 16.9630000000 5.7000000000  
C  9.7370000000 8.0530000000 17.5620000000  
C  9.5060000000 6.7160000000 17.9790000000  
C  15.6260000000 9.7370000000 6.1170000000  
C  15.2090000000 9.5060000000 7.4540000000  
C  8.0530000000 9.7370000000 17.5620000000  
C  8.4700000000 9.5060000000 16.2250000000  
C  8.0530000000 13.9420000000 6.1170000000  
C  8.4700000000 14.1730000000 7.4540000000  
C  15.6260000000 13.9420000000 17.5620000000  
C  15.2090000000 14.1730000000 16.2250000000  
C  12.8070000000 3.2990000000 9.1870000000  
C  13.2240000000 1.9620000000 9.4180000000  
C  1.3630000000 10.8710000000 9.1870000000  
C  0.9450000000 12.2080000000 9.4180000000  
C  1.3630000000 3.2990000000 4.9820000000  
C  0.9450000000 1.9620000000 4.7520000000  
C  12.8070000000 10.8710000000 4.9820000000  
C  13.2240000000 12.2080000000 4.7520000000  
C  1.3630000000 9.1870000000 10.8710000000  
C  2.6990000000 9.4180000000 10.4540000000  
C  12.8070000000 9.1870000000 3.2990000000  
C  11.4700000000 9.4180000000 3.7160000000  
C  1.3630000000 4.9820000000 3.2990000000  
C  2.6990000000 4.7520000000 3.7160000000  
C  12.8070000000 4.9820000000 10.8710000000  
C  11.4700000000 4.7520000000 10.4540000000  
C  14.4910000000 10.8710000000 3.2990000000  
C  14.2600000000 10.4540000000 1.9620000000  
C  14.4910000000 3.2990000000 10.8710000000  
C  14.2600000000 3.7160000000 12.2080000000  
C  18.6960000000 3.2990000000 3.2990000000  
C  18.9270000000 3.7160000000 1.9620000000  
C  18.6960000000 10.8710000000 10.8710000000  
C  18.9270000000 10.4540000000 12.2080000000  
C  17.5620000000 15.6260000000 13.9420000000  
C  16.2250000000 15.2090000000 14.1730000000  
C  6.1170000000 8.0530000000 13.9420000000  
C  7.4540000000 8.4700000000 14.1730000000  
C  17.5620000000 8.0530000000 9.7370000000  
C  16.2250000000 8.4700000000 9.5060000000  
C  6.1170000000 15.6260000000 9.7370000000  
C  7.4540000000 15.2090000000 9.5060000000  
C  4.4330000000 8.0530000000 15.6260000000  
C  4.6640000000 6.7160000000 15.2090000000  
C  4.4330000000 15.6260000000 8.0530000000  
C  4.6640000000 16.9630000000 8.4700000000  
C  0.2280000000 8.0530000000 8.0530000000  
C  -0.0030000000 6.7160000000 8.4700000000  
C  0.2280000000 15.6260000000 15.6260000000  
C  -0.0030000000 16.9630000000 15.2090000000  
C  6.1170000000 13.9420000000 8.0530000000  
C  5.7000000000 14.1730000000 6.7160000000  
C  17.5620000000 13.9420000000 15.6260000000  
C  17.9790000000 14.1730000000 16.9630000000  
C  17.5620000000 9.7370000000 8.0530000000  
C  17.9790000000 9.5060000000 6.7160000000  
C  6.1170000000 9.7370000000 15.6260000000  
C  5.7000000000 9.5060000000 16.9630000000  
C  8.0530000000 4.4330000000 15.6260000000  
C  8.4700000000 4.6640000000 16.9630000000  
C  15.6260000000 4.4330000000 8.0530000000  
C  15.2090000000 4.6640000000 6.7160000000  
C  15.6260000000 0.2280000000 15.6260000000  
C  15.2090000000 -0.0030000000 16.9630000000  
C  8.0530000000 0.2280000000 8.0530000000  
C  8.4700000000 -0.0030000000 6.7160000000  
C  15.6260000000 6.1170000000 9.7370000000  
C  16.9630000000 5.7000000000 9.5060000000  
C  8.0530000000 17.5620000000 9.7370000000  
C  6.7160000000 17.9790000000 9.5060000000  
C  15.6260000000 17.5620000000 13.9420000000  
C  16.9630000000 17.9790000000 14.1730000000  
C  8.0530000000 6.1170000000 13.9420000000  
C  6.7160000000 5.7000000000 14.1730000000  
C  9.7370000000 17.5620000000 8.0530000000  
C  9.5060000000 16.2250000000 8.4700000000  
C  9.7370000000 6.1170000000 15.6260000000  
C  9.5060000000 7.4540000000 15.2090000000  
C  13.9420000000 17.5620000000 15.6260000000  
C  14.1730000000 16.2250000000 15.2090000000  
C  13.9420000000 6.1170000000 8.0530000000  
C  14.1730000000 7.4540000000 8.4700000000  
C  2.6990000000 13.2240000000 14.2600000000  
C  11.4700000000 0.9450000000 14.2600000000  
C  2.6990000000 0.9450000000 18.9270000000  
C  11.4700000000 13.2240000000 18.9270000000  
C  14.2600000000 2.6990000000 13.2240000000  
C  14.2600000000 11.4700000000 0.9450000000  
C  18.9270000000 2.6990000000 0.9450000000  
C  18.9270000000 11.4700000000 13.2240000000  
C  13.2240000000 14.2600000000 2.6990000000  
C  0.9450000000 14.2600000000 11.4700000000  
C  0.9450000000 18.9270000000 2.6990000000  
C  13.2240000000 18.9270000000 11.4700000000  
C  5.7000000000 16.2250000000 4.6640000000  
C  17.9790000000 7.4540000000 4.6640000000  
C  17.9790000000 16.2250000000 -0.0030000000  
C  5.7000000000 7.4540000000 -0.0030000000  
C  16.2250000000 4.6640000000 5.7000000000  
C  7.4540000000 4.6640000000 17.9790000000  
C  16.2250000000 -0.0030000000 17.9790000000  
C  7.4540000000 -0.0030000000 5.7000000000  
C  4.6640000000 5.7000000000 16.2250000000  
C  4.6640000000 17.9790000000 7.4540000000  
C  -0.0030000000 17.9790000000 16.2250000000  
C  -0.0030000000 5.7000000000 7.4540000000  
C  8.4700000000 16.9630000000 4.6640000000  
C  15.2090000000 6.7160000000 4.6640000000  
C  15.2090000000 16.9630000000 -0.0030000000  
C  8.4700000000 6.7160000000 -0.0030000000  
C  16.9630000000 9.5060000000 5.7000000000  
C  6.7160000000 9.5060000000 17.9790000000  
C  16.9630000000 14.1730000000 17.9790000000  
C  6.7160000000 14.1730000000 5.7000000000  
C  9.5060000000 8.4700000000 16.2250000000  
C  9.5060000000 15.2090000000 7.4540000000  
C  14.1730000000 15.2090000000 16.2250000000  
C  14.1730000000 8.4700000000 7.4540000000  
C  8.4700000000 16.2250000000 9.5060000000  
C  15.2090000000 7.4540000000 9.5060000000  
C  15.2090000000 16.2250000000 14.1730000000  
C  8.4700000000 7.4540000000 14.1730000000  
C  16.9630000000 4.6640000000 8.4700000000  
C  6.7160000000 4.6640000000 15.2090000000  
C  16.9630000000 -0.0030000000 15.2090000000  
C  6.7160000000 -0.0030000000 8.4700000000  
C  9.5060000000 5.7000000000 16.9630000000  
C  9.5060000000 17.9790000000 6.7160000000  
C  14.1730000000 17.9790000000 16.9630000000  
C  14.1730000000 5.7000000000 6.7160000000  
C  12.2080000000 10.4540000000 18.9270000000  
C  1.9620000000 3.7160000000 18.9270000000  
C  12.2080000000 3.7160000000 14.2600000000  
C  1.9620000000 10.4540000000 14.2600000000  
C  4.7520000000 1.9620000000 0.9450000000  
C  4.7520000000 12.2080000000 13.2240000000  
C  9.4180000000 1.9620000000 13.2240000000  
C  9.4180000000 12.2080000000 0.9450000000  
C  3.7160000000 9.4180000000 11.4700000000  
C  10.4540000000 9.4180000000 2.6990000000  
C  10.4540000000 4.7520000000 11.4700000000  
C  3.7160000000 4.7520000000 2.6990000000  
C  5.7000000000 16.9630000000 9.5060000000  
C  17.9790000000 6.7160000000 9.5060000000  
C  17.9790000000 16.9630000000 14.1730000000  
C  5.7000000000 6.7160000000 14.1730000000  
C  16.2250000000 9.5060000000 8.4700000000  
C  7.4540000000 9.5060000000 15.2090000000  
C  16.2250000000 14.1730000000 15.2090000000  
C  7.4540000000 14.1730000000 8.4700000000  
C  4.6640000000 8.4700000000 16.9630000000  
C  4.6640000000 15.2090000000 6.7160000000  
C  -0.0030000000 15.2090000000 16.9630000000  
C  -0.0030000000 8.4700000000 6.7160000000  
C  2.6990000000 3.7160000000 4.7520000000  
C  11.4700000000 10.4540000000 4.7520000000  
C  2.6990000000 10.4540000000 9.4180000000  
C  11.4700000000 3.7160000000 9.4180000000  
C  14.2600000000 12.2080000000 3.7160000000  
C  14.2600000000 1.9620000000 10.4540000000  
C  18.9270000000 12.2080000000 10.4540000000  
C  18.9270000000 1.9620000000 3.7160000000  
C  13.2240000000 4.7520000000 12.2080000000  
C  0.9450000000 4.7520000000 1.9620000000  
C  0.9450000000 9.4180000000 12.2080000000  
C  13.2240000000 9.4180000000 1.9620000000  
C  10.4540000000 14.2600000000 1.9620000000  
C  3.7160000000 14.2600000000 12.2080000000  
C  3.7160000000 18.9270000000 1.9620000000  
C  10.4540000000 18.9270000000 12.2080000000  
C  1.9620000000 13.2240000000 9.4180000000  
C  12.2080000000 0.9450000000 9.4180000000  
C  1.9620000000 0.9450000000 4.7520000000  
C  12.2080000000 13.2240000000 4.7520000000  
C  9.4180000000 2.6990000000 10.4540000000  
C  9.4180000000 11.4700000000 3.7160000000  
C  4.7520000000 2.6990000000 3.7160000000  
C  4.7520000000 11.4700000000 10.4540000000  
O  16.2250000000 5.7000000000 3.3140000000  

