# File generated with Atomsk by madmaxiiemus on 2025-05-23 11:38:05
1.000000
      8.00000000        0.00000000        0.00000000
      0.00000000        8.00000000        0.00000000
      0.00000000        0.00000000        8.00000000
 O  H
     1       2
Cartesian
      4.00000000        4.00000000        4.39800000
      4.00000000        4.76300000        3.80100000
      4.00000000        3.23700000        3.80100000
