&CONTROL
   calculation      = 'relax'
   restart_mode     = 'from_scratch'
   nstep            = 1000
   tprnfor          = .true.
   etot_conv_thr    = 0.0001
   forc_conv_thr    = 0.001
/
&SYSTEM
   tot_magnetization = 0
   ecutwfc          = 50
   ecutrho          = 400
   occupations      = 'smearing'
   degauss          = 0.0001
   smearing         = 'gaussian'
   nspin            = 2
   input_dft        = 'pbe'
   ntyp             = 1
   nat              = 96
   ibrav            = 0
/
&ELECTRONS
   electron_maxstep = 100
   scf_must_converge = .false.
   conv_thr         = 1e-06
   mixing_mode      = 'plain'
   mixing_beta      = 0.3
   diagonalization  = 'david'
/
&IONS
   ion_dynamics     = 'bfgs'
   bfgs_ndim        = 1
/
&CELL
/
&FCP
/
&RISM
/
ATOMIC_SPECIES
C  12.011 C.pbe-n-kjpaw_psl.1.0.0.UPF

K_POINTS gamma

CELL_PARAMETERS angstrom
16.52512168884300 0.00000000000000 0.00000000000000
0.00000000000000 16.52591514587400 0.00000000000000
0.00000000000000 0.00000000000000 16.52622604370100

ATOMIC_POSITIONS angstrom
C  1.8134399556 1.8130701016 1.8129699987  
C  14.0838005713 14.0842000169 14.0842000036  
C  14.0837001040 14.0840995447 1.8128900874  
C  1.8134600245 1.8130899251 14.0843004777  
C  14.0838005713 1.8131000216 14.0843004777  
C  1.8134299828 14.0840995447 1.8129399550  
C  1.8134499285 14.0840995447 14.0843004777  
C  14.0837001040 1.8130400584 1.8129600252  
C  10.0760004307 10.0760005864 10.0761005050  
C  5.8211998355 5.8211498519 5.8211697251  
C  5.8211796435 5.8211798951 10.0760000310  
C  10.0760999131 10.0761000736 5.8212298125  
C  5.8212096852 10.0760005864 5.8211298310  
C  10.0760004307 5.8211498519 10.0760000310  
C  10.0760004307 5.8212197884 5.8211298310  
C  5.8211796435 10.0761000736 10.0760000310  
C  3.3884100703 3.3882299781 3.3880501689  
C  12.5087995531 12.5090997341 12.5090996401  
C  12.5087995531 12.5090997341 3.3881100101  
C  3.3884598115 3.3882698715 12.5093005882  
C  12.5087995531 3.3881299985 12.5090996401  
C  3.3883499869 12.5090002469 3.3880999134  
C  3.3883901246 12.5090002469 12.5090996401  
C  12.5087000707 3.3880100721 3.3882099916  
C  11.6510004640 11.6510998842 11.6513003576  
C  4.2463101193 4.2460096758 4.2460097667  
C  4.2462603781 4.2459604247 11.6511003945  
C  11.6510004640 11.6510998842 4.2460398104  
C  4.2462101444 11.6512003563 4.2460600037  
C  11.6510004640 4.2461500413 11.6511998835  
C  11.6510004640 4.2461101480 4.2460196171  
C  4.2463002695 11.6512003563 11.6511998835  
C  0.2839139869 1.9999899601 1.9998799526  
C  15.6133007153 13.8973001050 13.8972995308  
C  15.6133007153 13.8971996328 1.9998199883  
C  0.2839510157 1.9999700134 13.8972995308  
C  15.6133007153 1.9999799868 13.8972995308  
C  0.2839100162 13.8973001050 1.9998400584  
C  0.2839459985 13.8973001050 13.8974000048  
C  15.6133007153 1.9999700134 1.9998899261  
C  2.0002300572 0.2835449998 1.9998699790  
C  13.8970002507 15.6136997235 13.8974000048  
C  2.0002600989 15.6136997235 13.8972995308  
C  13.8970002507 0.2835100008 1.9997800941  
C  13.8970002507 15.6136002364 1.9997699975  
C  2.0002699486 0.2835339799 13.8972995308  
C  13.8970002507 0.2835629765 13.8974000048  
C  2.0002400300 15.6136997235 1.9998699790  
C  2.0001499049 1.9998699106 0.2833950056  
C  13.8970002507 13.8973001050 15.6138003923  
C  13.8970002507 1.9999400934 15.6138003923  
C  2.0001799466 13.8973001050 0.2834030091  
C  2.0001900426 13.8973001050 15.6138998813  
C  13.8970002507 1.9999299969 0.2833879872  
C  13.8970002507 13.8973001050 0.2833330097  
C  2.0001600009 1.9998600604 15.6138003923  
C  8.5464805872 10.2629004983 10.2629005038  
C  7.3507300212 5.6343095339 5.6342702373  
C  7.3507098292 5.6342903260 10.2629005038  
C  8.5465199862 10.2629004983 5.6343002810  
C  7.3507398709 10.2629004983 5.6342800877  
C  8.5464894520 5.6342701330 10.2629005038  
C  8.5465101365 5.6343198766 5.6342603869  
C  7.3506999794 10.2629004983 10.2629005038  
C  10.2627997664 8.5464604939 10.2629005038  
C  5.6344098571 7.3506997946 5.6342702373  
C  10.2627997664 7.3507500307 5.6343002810  
C  5.6343896651 8.5465097450 10.2629005038  
C  5.6343896651 7.3507401805 10.2629005038  
C  10.2627997664 8.5465294454 5.6343096389  
C  5.6344098571 8.5464801943 5.6342603869  
C  10.2627997664 7.3506899444 10.2629005038  
C  10.2627997664 10.2629004983 8.5465405030  
C  5.6343896651 5.6343001762 7.3507100263  
C  5.6344197068 10.2629004983 7.3506799826  
C  10.2627997664 5.6342903260 8.5464695802  
C  10.2627997664 5.6343095339 7.3506996834  
C  5.6344098571 10.2629004983 8.5464498794  
C  5.6343896651 5.6343095339 8.5464892810  
C  10.2627997664 10.2629004983 7.3507701137  
C  2.6893599809 2.6891199743 2.6889701084  
C  13.2078001476 13.2082008727 13.2082001401  
C  13.2078001476 13.2081004005 2.6889400647  
C  2.6894299141 2.6891401673 13.2082996292  
C  13.2078996300 2.6890899312 13.2082001401  
C  2.6893599809 13.2081004005 2.6890100026  
C  2.6893698306 13.2081004005 13.2082996292  
C  13.2078001476 2.6889601546 2.6890599933  
C  10.9518994021 10.9519997306 10.9521998575  
C  4.9452998791 4.9451398725 4.9451196246  
C  4.9452698374 4.9450999792 10.9519998944  
C  10.9519998695 10.9521002027 4.9451600112  
C  4.9452698374 10.9521002027 4.9451398179  
C  10.9518994021 4.9451699157 10.9520993835  
C  10.9519998695 4.9452201518 4.9451097742  
C  4.9452900293 10.9521002027 10.9520993835  

