1   
      1.000000000000
     14.189640998840        0.000000000000        0.000000000000
      0.000000000000       14.189665794373        0.000000000000
      0.000000000000        0.000000000000       14.189929008484
C
64 
Direct
      0.053506288677       0.647877156734       0.647867918015 
      0.003976542037       0.697401881218       0.697393178940 
      0.147876188159       0.553507089615       0.647866547108 
      0.197403162718       0.503977358341       0.697389721870 
      0.053510583937       0.553501427174       0.553493976593 
      0.003981601913       0.503976643085       0.503968000412 
      0.147872656584       0.647877156734       0.553498208523 
      0.197401747108       0.697399079800       0.503968000412 
      0.647878289223       0.053505700082       0.647867918015 
      0.697403132915       0.003975597210       0.697393178940 
      0.647878289223       0.147871688008       0.553498208523 
      0.697399616241       0.197400704026       0.503968000412 
      0.553502380848       0.053509648889       0.553493976593 
      0.503977477551       0.003980798647       0.503968000412 
      0.553508043289       0.147875219584       0.647865772247 
      0.503977477551       0.197402104735       0.697389721870 
      0.647876858711       0.647876381874       0.053497873247 
      0.697401702404       0.697401225567       0.003967511002 
      0.553510844707       0.647876381874       0.147867545485 
      0.503978908062       0.697399079800       0.197394222021 
      0.553503096104       0.553502142429       0.053499631584 
      0.503977477551       0.503977358341       0.003970999271 
      0.647876858711       0.553509831429       0.147867545485 
      0.697400271893       0.503978013992       0.197394222021 
      0.303504526615       0.897871792316       0.303495526314 
      0.253978937864       0.947400748730       0.253968864679 
      0.397867709398       0.803493261337       0.303494840860 
      0.447399646044       0.753971219063       0.253968149424 
      0.397876173258       0.897871792316       0.397864580154 
      0.447401046753       0.947400748730       0.447389841080 
      0.303507328033       0.803493261337       0.397858917713 
      0.253978937864       0.753971219063       0.447389125824 
      0.897873342037       0.303503990173       0.303495526314 
      0.947395384312       0.253977775574       0.253968864679 
      0.803494632244       0.303506821394       0.397858917713 
      0.753972530365       0.253977775574       0.447389125824 
      0.897873342037       0.397875487804       0.397864580154 
      0.947402417660       0.447399556637       0.447389841080 
      0.803494632244       0.397866994143       0.303494840860 
      0.753972530365       0.447398841381       0.253968149424 
      0.303503811359       0.303502559662       0.897862136364 
      0.253977537155       0.253976404667       0.947390258312 
      0.303505212069       0.397867709398       0.803485333920 
      0.253978222609       0.447398155928       0.753964304924 
      0.397874772549       0.397873371840       0.897862136364 
      0.447399646044       0.447398841381       0.947390258312 
      0.397868394852       0.303504705429       0.803485333920 
      0.447398930788       0.253977090120       0.753964304924 
      0.897873342037       0.897871792316       0.897862136364 
      0.947395384312       0.947400748730       0.947390258312 
      0.897866308689       0.803500235081       0.803492367268 
      0.947395384312       0.753978312016       0.753964304924 
      0.803501605988       0.803500235081       0.897855103016 
      0.753972530365       0.753971219063       0.947390258312 
      0.803501605988       0.897864699364       0.803492367268 
      0.753972530365       0.947393715382       0.753964304924 
      0.147876188159       0.053503867239       0.147864729166 
      0.197401747108       0.003976407927       0.197391405702 
      0.053504522890       0.053503725678       0.053491458297 
      0.003977599088       0.003976788372       0.003966214135 
      0.053504668176       0.147875219584       0.147864729166 
      0.003977246583       0.197401404381       0.197391405702 
      0.147874772549       0.147873803973       0.053494982421 
      0.197401046753       0.197399988770       0.003967376892 
