1   
      1.000000000000
     13.999397277832        0.000000000000        0.000000000000
      0.000000000000       13.999397277832        0.000000000000
      0.000000000000        0.000000000000       13.999397277832
C
64 
Direct
      0.066520936787       0.647787213326       0.647786438465 
      0.007351244800       0.706956148148       0.706956148148 
      0.147785633802       0.566516518593       0.647787868977 
      0.206954613328       0.507350444794       0.706956148148 
      0.066517725587       0.566514372826       0.566514372826 
      0.007351244800       0.507349014282       0.507349729538 
      0.147786349058       0.647788643837       0.566517233849 
      0.206954613328       0.706956863403       0.507350444794 
      0.647787213326       0.066520936787       0.647787213326 
      0.706955432892       0.007351030596       0.706955432892 
      0.647788643837       0.147786349058       0.566517949104 
      0.706956148148       0.206954613328       0.507350444794 
      0.566514372826       0.066517934203       0.566514372826 
      0.507349014282       0.007351244800       0.507349729538 
      0.566516518593       0.147786349058       0.647787868977 
      0.507349729538       0.206954613328       0.706956148148 
      0.647785782814       0.647786438465       0.066520579159 
      0.706956148148       0.706956148148       0.007351102307 
      0.566516518593       0.647789299488       0.147785633802 
      0.507349729538       0.706956863403       0.206953898072 
      0.566514372826       0.566514372826       0.066517502069 
      0.507350444794       0.507350444794       0.007351745386 
      0.647788643837       0.566516518593       0.147785633802 
      0.706957578659       0.507349729538       0.206954613328 
      0.316518604755       0.897788643837       0.316517174244 
      0.257349640131       0.956955492496       0.257349640131 
      0.397788554430       0.816520869732       0.316517889500 
      0.456955373287       0.757354021072       0.257348924875 
      0.397789984941       0.897788643837       0.397790700197 
      0.456954658031       0.956955492496       0.456955373287 
      0.316518604755       0.816520869732       0.397788554430 
      0.257349640131       0.757354021072       0.456956088543 
      0.897788643837       0.316518604755       0.316517174244 
      0.956955492496       0.257350355387       0.257349640131 
      0.816520869732       0.316517889500       0.397788554430 
      0.757354021072       0.257349640131       0.456956088543 
      0.897788643837       0.397789269686       0.397790700197 
      0.956955492496       0.456954658031       0.456955373287 
      0.816520869732       0.397788554430       0.316517889500 
      0.757354021072       0.456955373287       0.257349640131 
      0.316517174244       0.316517174244       0.897781550884 
      0.257350355387       0.257349640131       0.956955492496 
      0.316517889500       0.397788554430       0.816520869732 
      0.257349640131       0.456956088543       0.757354021072 
      0.397789984941       0.397790700197       0.897788643837 
      0.456955373287       0.456955373287       0.956955492496 
      0.397788554430       0.316517889500       0.816520869732 
      0.456956088543       0.257349640131       0.757354021072 
      0.897788643837       0.897788643837       0.897788643837 
      0.956955492496       0.956955492496       0.956955492496 
      0.897788643837       0.816520869732       0.816520869732 
      0.956955492496       0.757346868515       0.757354021072 
      0.816520869732       0.816520869732       0.897788643837 
      0.757346868515       0.757346868515       0.956955492496 
      0.816513717175       0.897788643837       0.816520869732 
      0.757346868515       0.956955492496       0.757346868515 
      0.147787779570       0.066518723965       0.147786349058 
      0.206955328584       0.007349387743       0.206955328584 
      0.066515572369       0.066516287625       0.066517651081 
      0.007350459695       0.007349744905       0.007351530716 
      0.066518150270       0.147787064314       0.147787064314 
      0.007349459454       0.206955328584       0.206955328584 
      0.147789210081       0.147789210081       0.066519647837 
      0.206956043839       0.206956043839       0.007350173779 
