# File generated with Atomsk by geedai on 2025-05-21 15:37:41
1.000000
     16.52500000        0.00000000        0.00000000
      0.00000000       16.52600000        0.00000000
      0.00000000        0.00000000       16.52600000
 C  O
    96       1
Cartesian
      1.81300000        1.81300000        1.81300000
     14.08400000       14.08400000       14.08400000
     14.08400000       14.08400000        1.81300000
      1.81300000        1.81300000       14.08400000
     14.08400000        1.81300000       14.08400000
      1.81300000       14.08400000        1.81300000
      1.81300000       14.08400000       14.08400000
     14.08400000        1.81300000        1.81300000
     10.07600000       10.07600000       10.07600000
      5.82100000        5.82100000        5.82100000
      5.82100000        5.82100000       10.07600000
     10.07600000       10.07600000        5.82100000
      5.82100000       10.07600000        5.82100000
     10.07600000        5.82100000       10.07600000
     10.07600000        5.82100000        5.82100000
      5.82100000       10.07600000       10.07600000
      3.38800000        3.38800000        3.38800000
     12.50900000       12.50900000       12.50900000
     12.50900000       12.50900000        3.38800000
      3.38800000        3.38800000       12.50900000
     12.50900000        3.38800000       12.50900000
      3.38800000       12.50900000        3.38800000
      3.38800000       12.50900000       12.50900000
     12.50900000        3.38800000        3.38800000
     11.65100000       11.65100000       11.65100000
      4.24600000        4.24600000        4.24600000
      4.24600000        4.24600000       11.65100000
     11.65100000       11.65100000        4.24600000
      4.24600000       11.65100000        4.24600000
     11.65100000        4.24600000       11.65100000
     11.65100000        4.24600000        4.24600000
      4.24600000       11.65100000       11.65100000
      0.28400000        2.00000000        2.00000000
     15.61300000       13.89700000       13.89700000
     15.61300000       13.89700000        2.00000000
      0.28400000        2.00000000       13.89700000
     15.61300000        2.00000000       13.89700000
      0.28400000       13.89700000        2.00000000
      0.28400000       13.89700000       13.89700000
     15.61300000        2.00000000        2.00000000
      2.00000000        0.28400000        2.00000000
     13.89700000       15.61400000       13.89700000
      2.00000000       15.61400000       13.89700000
     13.89700000        0.28400000        2.00000000
     13.89700000       15.61400000        2.00000000
      2.00000000        0.28400000       13.89700000
     13.89700000        0.28400000       13.89700000
      2.00000000       15.61400000        2.00000000
      2.00000000        2.00000000        0.28300000
     13.89700000       13.89700000       15.61400000
     13.89700000        2.00000000       15.61400000
      2.00000000       13.89700000        0.28300000
      2.00000000       13.89700000       15.61400000
     13.89700000        2.00000000        0.28300000
     13.89700000       13.89700000        0.28300000
      2.00000000        2.00000000       15.61400000
      8.54600000       10.26300000       10.26300000
      7.35100000        5.63400000        5.63400000
      7.35100000        5.63400000       10.26300000
      8.54700000       10.26300000        5.63400000
      7.35100000       10.26300000        5.63400000
      8.54600000        5.63400000       10.26300000
      8.54700000        5.63400000        5.63400000
      7.35100000       10.26300000       10.26300000
     10.26300000        8.54600000       10.26300000
      5.63400000        7.35100000        5.63400000
     10.26300000        7.35100000        5.63400000
      5.63400000        8.54700000       10.26300000
      5.63400000        7.35100000       10.26300000
     10.26300000        8.54700000        5.63400000
      5.63400000        8.54600000        5.63400000
     10.26300000        7.35100000       10.26300000
     10.26300000       10.26300000        8.54700000
      5.63400000        5.63400000        7.35100000
      5.63400000       10.26300000        7.35100000
     10.26300000        5.63400000        8.54600000
     10.26300000        5.63400000        7.35100000
      5.63400000       10.26300000        8.54600000
      5.63400000        5.63400000        8.54600000
     10.26300000       10.26300000        7.35100000
      2.68900000        2.68900000        2.68900000
     13.20800000       13.20800000       13.20800000
     13.20800000       13.20800000        2.68900000
      2.68900000        2.68900000       13.20800000
     13.20800000        2.68900000       13.20800000
      2.68900000       13.20800000        2.68900000
      2.68900000       13.20800000       13.20800000
     13.20800000        2.68900000        2.68900000
     10.95200000       10.95200000       10.95200000
      4.94500000        4.94500000        4.94500000
      4.94500000        4.94500000       10.95200000
     10.95200000       10.95200000        4.94500000
      4.94500000       10.95200000        4.94500000
     10.95200000        4.94500000       10.95200000
     10.95200000        4.94500000        4.94500000
      4.94500000       10.95200000       10.95200000
      2.83200000        3.02100000       15.93700000
