&CONTROL
   calculation      = 'relax'
   restart_mode     = 'from_scratch'
   nstep            = 1000
   tprnfor          = .true.
   etot_conv_thr    = 0.0001
   forc_conv_thr    = 0.001
/
&SYSTEM
   tot_magnetization = 0
   ecutwfc          = 50
   ecutrho          = 400
   occupations      = 'smearing'
   degauss          = 0.0001
   smearing         = 'gaussian'
   nspin            = 2
   input_dft        = 'pbe'
   ntyp             = 2
   nat              = 201
   ibrav            = 0
/
&ELECTRONS
   electron_maxstep = 100
   scf_must_converge = .false.
   conv_thr         = 1e-06
   mixing_mode      = 'plain'
   mixing_beta      = 0.3
   diagonalization  = 'david'
/
&IONS
   ion_dynamics     = 'bfgs'
   bfgs_ndim        = 1
/
&CELL
/
&FCP
/
&RISM
/
ATOMIC_SPECIES
C  12.011 C.pbe-n-kjpaw_psl.1.0.0.UPF
O  15.999 O.pbe-n-kjpaw_psl.0.1.UPF

K_POINTS gamma

CELL_PARAMETERS angstrom
16.11400000000000 0.00000000000000 0.00000000000000
0.00000000000000 16.11300000000000 0.00000000000000
0.00000000000000 0.00000000000000 16.11200000000000

ATOMIC_POSITIONS angstrom
C  9.4150000000 10.4170000000 13.6160000000  
C  8.7540000000 10.7410000000 12.3660000000  
C  8.7550000000 5.3640000000 1.2190000000  
C  9.4710000000 11.2110000000 11.2110000000  
C  5.3840000000 5.3840000000 5.3840000000  
C  16.0960000000 5.6290000000 9.4340000000  
C  6.6620000000 5.6600000000 13.6160000000  
C  7.3230000000 5.3360000000 12.3660000000  
C  7.3220000000 10.7130000000 1.2190000000  
C  6.6060000000 4.8660000000 11.2110000000  
C  10.6930000000 10.6930000000 5.3840000000  
C  16.0960000000 10.4480000000 9.4340000000  
C  9.4150000000 5.6600000000 2.4610000000  
C  8.7540000000 5.3360000000 3.7110000000  
C  8.7550000000 10.7130000000 14.8580000000  
C  9.4710000000 4.8660000000 4.8660000000  
C  5.3840000000 10.6930000000 10.6930000000  
C  16.0960000000 10.4480000000 6.6430000000  
C  6.6620000000 10.4170000000 2.4610000000  
C  7.3230000000 10.7410000000 3.7110000000  
C  7.3220000000 5.3640000000 14.8580000000  
C  6.6060000000 11.2110000000 4.8660000000  
C  10.6930000000 5.3840000000 10.6930000000  
C  -0.0190000000 5.6290000000 6.6430000000  
C  13.6160000000 9.4150000000 10.4170000000  
C  12.3670000000 8.7540000000 10.7410000000  
C  1.2180000000 8.7550000000 5.3640000000  
C  11.2120000000 9.4710000000 11.2110000000  
C  9.4340000000 -0.0180000000 5.6300000000  
C  13.6160000000 6.6620000000 5.6600000000  
C  12.3670000000 7.3230000000 5.3360000000  
C  1.2180000000 7.3220000000 10.7130000000  
C  11.2120000000 6.6060000000 4.8660000000  
C  9.4340000000 -0.0180000000 10.4480000000  
C  2.4610000000 9.4150000000 5.6600000000  
C  3.7100000000 8.7540000000 5.3360000000  
C  14.8590000000 8.7550000000 10.7130000000  
C  4.8650000000 9.4710000000 4.8660000000  
C  6.6430000000 16.0950000000 10.4480000000  
C  2.4610000000 6.6620000000 10.4170000000  
C  3.7100000000 7.3230000000 10.7410000000  
C  14.8590000000 7.3220000000 5.3640000000  
C  4.8650000000 6.6060000000 11.2110000000  
C  6.6430000000 16.0950000000 5.6300000000  
C  10.4170000000 13.6160000000 9.4150000000  
C  10.7410000000 12.3660000000 8.7540000000  
C  5.3640000000 1.2190000000 8.7550000000  
C  11.2120000000 11.2110000000 9.4710000000  
C  5.6290000000 9.4340000000 16.0950000000  
C  5.6600000000 13.6160000000 6.6620000000  
C  5.3360000000 12.3660000000 7.3230000000  
C  10.7130000000 1.2190000000 7.3220000000  
C  4.8650000000 11.2110000000 6.6060000000  
C  10.4480000000 9.4340000000 -0.0180000000  
C  5.6600000000 2.4610000000 9.4150000000  
C  5.3360000000 3.7110000000 8.7540000000  
C  10.7130000000 14.8580000000 8.7550000000  
C  4.8650000000 4.8660000000 9.4710000000  
C  10.4480000000 6.6430000000 16.0950000000  
C  10.4170000000 2.4610000000 6.6620000000  
C  10.7410000000 3.7110000000 7.3230000000  
C  5.3640000000 14.8580000000 7.3220000000  
C  11.2120000000 4.8660000000 6.6060000000  
C  5.6290000000 6.6430000000 -0.0180000000  
C  5.6600000000 6.6620000000 2.4610000000  
C  5.3360000000 7.3230000000 3.7110000000  
C  10.7130000000 7.3220000000 14.8580000000  
C  4.8650000000 6.6060000000 4.8660000000  
C  10.6930000000 10.6930000000 10.6930000000  
C  10.4480000000 16.0950000000 6.6430000000  
C  10.4170000000 9.4150000000 2.4610000000  
C  10.7410000000 8.7540000000 3.7110000000  
C  5.3640000000 8.7550000000 14.8580000000  
C  11.2120000000 9.4710000000 4.8660000000  
C  5.3840000000 5.3840000000 10.6930000000  
C  5.6290000000 -0.0180000000 6.6430000000  
C  10.4170000000 6.6620000000 13.6160000000  
C  10.7410000000 7.3230000000 12.3660000000  
C  5.3640000000 7.3220000000 1.2190000000  
C  11.2120000000 6.6060000000 11.2110000000  
C  5.3840000000 10.6930000000 5.3840000000  
C  5.6290000000 16.0950000000 9.4340000000  
C  5.6600000000 9.4150000000 13.6160000000  
C  5.3360000000 8.7540000000 12.3660000000  
C  10.7130000000 8.7550000000 1.2190000000  
C  4.8650000000 9.4710000000 11.2110000000  
C  10.6930000000 5.3840000000 5.3840000000  
C  10.4480000000 -0.0180000000 9.4340000000  
C  6.6620000000 2.4610000000 5.6600000000  
C  7.3230000000 3.7110000000 5.3360000000  
C  7.3220000000 14.8580000000 10.7130000000  
C  6.6060000000 4.8660000000 4.8660000000  
C  16.0960000000 6.6430000000 10.4480000000  
C  9.4150000000 2.4610000000 10.4170000000  
C  8.7540000000 3.7110000000 10.7410000000  
C  8.7550000000 14.8580000000 5.3640000000  
C  9.4710000000 4.8660000000 11.2110000000  
C  -0.0190000000 6.6430000000 5.6300000000  
C  6.6620000000 13.6160000000 10.4170000000  
C  7.3230000000 12.3660000000 10.7410000000  
C  7.3220000000 1.2190000000 5.3640000000  
C  6.6060000000 11.2110000000 11.2110000000  
C  -0.0190000000 9.4340000000 5.6300000000  
C  9.4150000000 13.6160000000 5.6600000000  
C  8.7540000000 12.3660000000 5.3360000000  
C  8.7550000000 1.2190000000 10.7130000000  
C  9.4710000000 11.2110000000 4.8660000000  
C  16.0960000000 9.4340000000 10.4480000000  
C  2.4610000000 5.6600000000 6.6620000000  
C  3.7100000000 5.3360000000 7.3230000000  
C  14.8590000000 10.7130000000 7.3220000000  
C  4.8650000000 4.8660000000 6.6060000000  
C  6.6430000000 10.4480000000 -0.0180000000  
C  2.4610000000 10.4170000000 9.4150000000  
C  3.7100000000 10.7410000000 8.7540000000  
C  14.8590000000 5.3640000000 8.7550000000  
C  4.8650000000 11.2110000000 9.4710000000  
C  6.6430000000 5.6290000000 -0.0180000000  
C  13.6160000000 10.4170000000 6.6620000000  
C  12.3670000000 10.7410000000 7.3230000000  
C  1.2180000000 5.3640000000 7.3220000000  
C  11.2120000000 11.2110000000 6.6060000000  
C  9.4340000000 5.6290000000 -0.0180000000  
C  13.6160000000 5.6600000000 9.4150000000  
C  12.3670000000 5.3360000000 8.7540000000  
C  1.2180000000 10.7130000000 8.7550000000  
C  11.2120000000 4.8660000000 9.4710000000  
C  9.4340000000 10.4480000000 -0.0180000000  
C  6.6620000000 5.6600000000 2.4610000000  
C  7.3230000000 5.3360000000 3.7110000000  
C  7.3220000000 10.7130000000 14.8580000000  
C  9.4150000000 10.4170000000 2.4610000000  
C  8.7540000000 10.7410000000 3.7110000000  
C  8.7550000000 5.3640000000 14.8580000000  
C  6.6620000000 10.4170000000 13.6160000000  
C  7.3230000000 10.7410000000 12.3660000000  
C  7.3220000000 5.3640000000 1.2190000000  
C  9.4150000000 5.6600000000 13.6160000000  
C  8.7540000000 5.3360000000 12.3660000000  
C  8.7550000000 10.7130000000 1.2190000000  
C  2.4610000000 6.6620000000 5.6600000000  
C  3.7100000000 7.3230000000 5.3360000000  
C  14.8590000000 7.3220000000 10.7130000000  
C  2.4610000000 9.4150000000 10.4170000000  
C  3.7100000000 8.7540000000 10.7410000000  
C  14.8590000000 8.7550000000 5.3640000000  
C  13.6160000000 6.6620000000 10.4170000000  
C  12.3670000000 7.3230000000 10.7410000000  
C  1.2180000000 7.3220000000 5.3640000000  
C  13.6160000000 9.4150000000 5.6600000000  
C  12.3670000000 8.7540000000 5.3360000000  
C  1.2180000000 8.7550000000 10.7130000000  
C  5.6600000000 2.4610000000 6.6620000000  
C  5.3360000000 3.7110000000 7.3230000000  
C  10.7130000000 14.8580000000 7.3220000000  
C  10.4170000000 2.4610000000 9.4150000000  
C  10.7410000000 3.7110000000 8.7540000000  
C  5.3640000000 14.8580000000 8.7550000000  
C  10.4170000000 13.6160000000 6.6620000000  
C  10.7410000000 12.3660000000 7.3230000000  
C  5.3640000000 1.2190000000 7.3220000000  
C  5.6600000000 13.6160000000 9.4150000000  
C  5.3360000000 12.3660000000 8.7540000000  
C  10.7130000000 1.2190000000 8.7550000000  
C  10.4170000000 9.4150000000 13.6160000000  
C  10.7410000000 8.7540000000 12.3660000000  
C  5.3640000000 8.7550000000 1.2190000000  
C  5.6600000000 6.6620000000 13.6160000000  
C  5.3360000000 7.3230000000 12.3660000000  
C  10.7130000000 7.3220000000 1.2190000000  
C  5.6600000000 9.4150000000 2.4610000000  
C  5.3360000000 8.7540000000 3.7110000000  
C  10.7130000000 8.7550000000 14.8580000000  
C  10.4170000000 6.6620000000 2.4610000000  
C  10.7410000000 7.3230000000 3.7110000000  
C  5.3640000000 7.3220000000 14.8580000000  
C  9.4150000000 13.6160000000 10.4170000000  
C  8.7540000000 12.3660000000 10.7410000000  
C  8.7550000000 1.2190000000 5.3640000000  
C  6.6620000000 13.6160000000 5.6600000000  
C  7.3230000000 12.3660000000 5.3360000000  
C  7.3220000000 1.2190000000 10.7130000000  
C  9.4150000000 2.4610000000 5.6600000000  
C  8.7540000000 3.7110000000 5.3360000000  
C  8.7550000000 14.8580000000 10.7130000000  
C  6.6620000000 2.4610000000 10.4170000000  
C  7.3230000000 3.7110000000 10.7410000000  
C  7.3220000000 14.8580000000 5.3640000000  
C  13.6160000000 10.4170000000 9.4150000000  
C  12.3670000000 10.7410000000 8.7540000000  
C  1.2180000000 5.3640000000 8.7550000000  
C  13.6160000000 5.6600000000 6.6620000000  
C  12.3670000000 5.3360000000 7.3230000000  
C  1.2180000000 10.7130000000 7.3220000000  
C  2.4610000000 5.6600000000 9.4150000000  
C  3.7100000000 5.3360000000 8.7540000000  
C  14.8590000000 10.7130000000 8.7550000000  
C  2.4610000000 10.4170000000 6.6620000000  
C  3.7100000000 10.7410000000 7.3230000000  
C  14.8590000000 5.3640000000 7.3220000000  
O  9.4150000000 11.7670000000 13.6160000000  

