1   
      1.000000000000
     16.114151000977        0.000000000000        0.000000000000
      0.000000000000       16.112819671631        0.000000000000
      0.000000000000        0.000000000000       16.112308502197
C
200 
Direct
      0.584260344505       0.646497607231       0.845043361187 
      0.543242394924       0.666599631310       0.767475366592 
      0.543299496174       0.332903236151       0.075673200190 
      0.587739288807       0.695793807507       0.695809662342 
      0.334094524384       0.334136426449       0.334152609110 
      0.998848795891       0.349378317595       0.585502088070 
      0.413434118032       0.351280540228       0.845043361187 
      0.454452127218       0.331175446510       0.767475366592 
      0.454394996166       0.664874315262       0.075673200190 
      0.409955203533       0.301980644464       0.695809662342 
      0.663603067398       0.663639247417       0.334152609110 
      0.998848795891       0.648396790028       0.585502088070 
      0.584260344505       0.351280540228       0.152763336897 
      0.543242394924       0.331175446510       0.230333223939 
      0.543299496174       0.664874315262       0.922133564949 
      0.587739288807       0.301980644464       0.301999568939 
      0.334094524384       0.663639247417       0.663654088974 
      0.998848795891       0.648396790028       0.412306517363 
      0.413434118032       0.646497607231       0.152763336897 
      0.454452127218       0.666599631310       0.230333223939 
      0.454394996166       0.332903236151       0.922133564949 
      0.409955203533       0.695793807507       0.301999568939 
      0.663603067398       0.334136426449       0.663654088974 
     -0.001152726007       0.349378317595       0.412306517363 
      0.844996392727       0.584303081036       0.646511912346 
      0.767431080341       0.543286621571       0.666620790958 
      0.075613044202       0.543343186378       0.332920640707 
      0.695767343044       0.587781667709       0.695809662342 
      0.585441350937      -0.001111481455       0.349392503500 
      0.844996392727       0.413473874331       0.351294159889 
      0.767431080341       0.454490303993       0.331186562777 
      0.075613044202       0.454433798790       0.664889216423 
      0.695767343044       0.409995287657       0.301996439695 
      0.585441350937      -0.001111481455       0.648417353630 
      0.152699321508       0.584303081036       0.351294159889 
      0.230261579156       0.543286621571       0.331186562777 
      0.922083914280       0.543343186378       0.664889216423 
      0.301927804947       0.587781667709       0.301996439695 
      0.412253171206       0.998887896538       0.648417353630 
      0.152699321508       0.413473874331       0.646511912346 
      0.230261579156       0.454490303993       0.666620790958 
      0.922083914280       0.454433798790       0.332920640707 
      0.301927804947       0.409995287657       0.695809662342 
      0.412253171206       0.998887896538       0.349392503500 
      0.646456658840       0.845035195351       0.584325909615 
      0.666569411755       0.767469644547       0.543303847313 
      0.332861483097       0.075656533241       0.543361008167 
      0.695767343044       0.695800006390       0.587798476219 
      0.349337071180       0.585491538048       0.998907148838 
      0.351239115000       0.845035195351       0.413482636213 
      0.331125736237       0.767469644547       0.454504698515 
      0.664831757545       0.075656533241       0.454447597265 
      0.301926553249       0.695800006390       0.410010159016 
      0.648355543613       0.585491538048      -0.001095671672 
      0.351239115000       0.152744829655       0.584325909615 
      0.331125736237       0.230309173465       0.543303847313 
      0.664831757545       0.922122895718       0.543361008167 
      0.301926553249       0.301976323128       0.587798476219 
      0.648355543613       0.412285387516       0.998907148838 
      0.646456658840       0.152744829655       0.413482636213 
      0.666569411755       0.230309173465       0.454504698515 
      0.332861483097       0.922122895718       0.454447597265 
      0.695767343044       0.301976323128       0.410010159016 
      0.349337071180       0.412285387516      -0.001095671672 
      0.351239740849       0.413468271494       0.152762711048 
      0.331128209829       0.454490303993       0.230329498649 
      0.664831757545       0.454432547092       0.922133564949 
      0.301927804947       0.409995287657       0.301996439695 
      0.663603067398       0.663639247417       0.663654088974 
      0.648355543613       0.998887896538       0.412300944328 
      0.646456658840       0.584308624268       0.152762711048 
      0.666569411755       0.543286621571       0.230329498649 
      0.332861483097       0.543344378471       0.922133564949 
      0.695767343044       0.587781667709       0.301996439695 
      0.334094524384       0.334136426449       0.663654088974 
      0.349337667227      -0.001111481455       0.412300944328 
      0.646456658840       0.413468271494       0.845043361187 
      0.666569411755       0.454490303993       0.767481565475 
      0.332861483097       0.454432547092       0.075673200190 
      0.695767343044       0.409995287657       0.695809662342 
      0.334094524384       0.663639247417       0.334152609110 
      0.349337667227       0.998887896538       0.585507631302 
      0.351239740849       0.584308624268       0.845043361187 
      0.331128209829       0.543286621571       0.767481565475 
      0.664831757545       0.543344378471       0.075673200190 
      0.301927804947       0.587781667709       0.695809662342 
      0.663603067398       0.334136426449       0.334152609110 
      0.648355543613      -0.001111481455       0.585507631302 
      0.413435995579       0.152746081352       0.351296037436 
      0.454452127218       0.230314120650       0.331191509962 
      0.454395622015       0.922122895718       0.664889216423 
      0.409955203533       0.301980644464       0.301999568939 
      0.998848795891       0.412293434143       0.648417353630 
      0.584258556366       0.152746081352       0.646511912346 
      0.543242394924       0.230314120650       0.666614592075 
      0.543298840523       0.922122895718       0.332920014858 
      0.587739288807       0.301980644464       0.695809662342 
     -0.001152726007       0.412293434143       0.349393755198 
      0.413435995579       0.845028996468       0.646511912346 
      0.454452127218       0.767463445663       0.666614592075 
      0.454395622015       0.075656533241       0.332920014858 
      0.409955203533       0.695793807507       0.695809662342 
     -0.001152726007       0.585483491421       0.349393755198 
      0.584258556366       0.845028996468       0.351296037436 
      0.543242394924       0.767463445663       0.331191509962 
      0.543298840523       0.075656533241       0.664889216423 
      0.587739288807       0.695793807507       0.301999568939 
      0.998848795891       0.585483491421       0.648417353630 
      0.152699321508       0.351278662682       0.413486987352 
      0.230260342360       0.331167995930       0.454505324364 
      0.922083914280       0.664874315262       0.454448223114 
      0.301926553249       0.301976323128       0.410010159016 
      0.412250697613       0.648402988911      -0.001095671672 
      0.152699321508       0.646497607231       0.584321618080 
      0.230260342360       0.666605889797       0.543303251266 
      0.922083914280       0.332904487848       0.543360412121 
      0.301926553249       0.695800006390       0.587798476219 
      0.412250697613       0.349377065897      -0.001095671672 
      0.844996392727       0.646497607231       0.413486987352 
      0.767431080341       0.666605889797       0.454505324364 
      0.075613044202       0.332904487848       0.454448223114 
      0.695767343044       0.695800006390       0.410010159016 
      0.585443854332       0.349377065897      -0.001095671672 
      0.844996392727       0.351278662682       0.584321618080 
      0.767431080341       0.331167995930       0.543303251266 
      0.075613044202       0.664874315262       0.543360412121 
      0.695767343044       0.301976323128       0.587798476219 
      0.585443854332       0.648402988911      -0.001095671672 
      0.413434118032       0.351280540228       0.152763336897 
      0.454452127218       0.331175446510       0.230333223939 
      0.454394996166       0.664874315262       0.922133564949 
      0.584260344505       0.646497607231       0.152763336897 
      0.543242394924       0.666599631310       0.230333223939 
      0.543299496174       0.332903236151       0.922133564949 
      0.413434118032       0.646497607231       0.845043361187 
      0.454452127218       0.666599631310       0.767475366592 
      0.454394996166       0.332903236151       0.075673200190 
      0.584260344505       0.351280540228       0.845043361187 
      0.543242394924       0.331175446510       0.767475366592 
      0.543299496174       0.664874315262       0.075673200190 
      0.152699321508       0.413473874331       0.351294159889 
      0.230261579156       0.454490303993       0.331186562777 
      0.922083914280       0.454433798790       0.664889216423 
      0.152699321508       0.584303081036       0.646511912346 
      0.230261579156       0.543286621571       0.666620790958 
      0.922083914280       0.543343186378       0.332920640707 
      0.844996392727       0.413473874331       0.646511912346 
      0.767431080341       0.454490303993       0.666620790958 
      0.075613044202       0.454433798790       0.332920640707 
      0.844996392727       0.584303081036       0.351294159889 
      0.767431080341       0.543286621571       0.331186562777 
      0.075613044202       0.543343186378       0.664889216423 
      0.351239115000       0.152744829655       0.413482636213 
      0.331125736237       0.230309173465       0.454504698515 
      0.664831757545       0.922122895718       0.454447597265 
      0.646456658840       0.152744829655       0.584325909615 
      0.666569411755       0.230309173465       0.543303847313 
      0.332861483097       0.922122895718       0.543361008167 
      0.646456658840       0.845035195351       0.413482636213 
      0.666569411755       0.767469644547       0.454504698515 
      0.332861483097       0.075656533241       0.454447597265 
      0.351239115000       0.845035195351       0.584325909615 
      0.331125736237       0.767469644547       0.543303847313 
      0.664831757545       0.075656533241       0.543361008167 
      0.646456658840       0.584308624268       0.845043361187 
      0.666569411755       0.543286621571       0.767481565475 
      0.332861483097       0.543344378471       0.075673200190 
      0.351239740849       0.413468271494       0.845043361187 
      0.331128209829       0.454490303993       0.767481565475 
      0.664831757545       0.454432547092       0.075673200190 
      0.351239740849       0.584308624268       0.152762711048 
      0.331128209829       0.543286621571       0.230329498649 
      0.664831757545       0.543344378471       0.922133564949 
      0.646456658840       0.413468271494       0.152762711048 
      0.666569411755       0.454490303993       0.230329498649 
      0.332861483097       0.454432547092       0.922133564949 
      0.584258556366       0.845028996468       0.646511912346 
      0.543242394924       0.767463445663       0.666614592075 
      0.543298840523       0.075656533241       0.332920014858 
      0.413435995579       0.845028996468       0.351296037436 
      0.454452127218       0.767463445663       0.331191509962 
      0.454395622015       0.075656533241       0.664889216423 
      0.584258556366       0.152746081352       0.351296037436 
      0.543242394924       0.230314120650       0.331191509962 
      0.543298840523       0.922122895718       0.664889216423 
      0.413435995579       0.152746081352       0.646511912346 
      0.454452127218       0.230314120650       0.666614592075 
      0.454395622015       0.922122895718       0.332920014858 
      0.844996392727       0.646497607231       0.584321618080 
      0.767431080341       0.666605889797       0.543303251266 
      0.075613044202       0.332904487848       0.543360412121 
      0.844996392727       0.351278662682       0.413486987352 
      0.767431080341       0.331167995930       0.454505324364 
      0.075613044202       0.664874315262       0.454448223114 
      0.152699321508       0.351278662682       0.584321618080 
      0.230260342360       0.331167995930       0.543303251266 
      0.922083914280       0.664874315262       0.543360412121 
      0.152699321508       0.646497607231       0.413486987352 
      0.230260342360       0.666605889797       0.454505324364 
      0.922083914280       0.332904487848       0.454448223114 
