# File generated with Atomsk by geedai on 2025-05-21 15:46:26
1.000000
     11.00000000        0.00000000        0.00000000
      0.00000000       11.00200000        0.00000000
      0.00000000        0.00000000       11.00000000
 C  H
    48       1
Cartesian
      6.16800000        4.60800000        6.16900000
      7.68400000        3.08600000        7.68400000
      6.97400000        3.79900000        6.97400000
      4.60800000        6.16900000        6.16900000
      3.08600000        7.68400000        7.68400000
      3.79900000        6.97400000        6.97400000
      6.16900000        6.16900000        4.60800000
      7.68400000        7.68400000        3.08600000
      6.97400000        6.97400000        3.79900000
      4.60300000        4.60300000        4.60300000
      3.08500000        3.08500000        3.08500000
      3.79600000        3.79600000        3.79600000
      6.22500000        4.54600000        4.54600000
      7.76400000        3.01300000        3.01300000
      7.05300000        3.72100000        3.72200000
      4.54600000        6.22500000        4.54600000
      3.01300000        7.76500000        3.01300000
      3.72100000        7.05300000        3.72200000
      4.54600000        4.54500000        6.22600000
      3.01300000        3.01300000        7.76400000
      3.72100000        3.72100000        7.05300000
      6.22900000        6.22900000        6.22900000
      7.76400000        7.76500000        7.76500000
      7.05500000        7.05600000        7.05500000
      0.66800000       10.10300000        0.66800000
      2.18800000        8.58900000        2.18800000
      1.47600000        9.29800000        1.47600000
     10.10200000        0.66700000        0.66800000
      8.58900000        2.18700000        2.18800000
      9.29800000        1.47500000        1.47600000
      0.66800000        0.66700000       10.10300000
      2.18700000        2.18700000        8.58900000
      1.47600000        1.47500000        9.29800000
     10.10800000       10.10800000       10.10700000
      8.59000000        8.59000000        8.59000000
      9.30100000        9.30100000        9.30000000
      0.72900000       10.04600000       10.04600000
      2.25900000        8.50900000        8.50800000
      1.55200000        9.21900000        9.21900000
     10.04500000        0.72800000       10.04600000
      8.50800000        2.25900000        8.50800000
      9.21800000        1.55100000        9.21800000
     10.04600000       10.04700000        0.72900000
      8.50800000        8.50900000        2.25900000
      9.21900000        9.21900000        1.55200000
      0.72600000        0.72500000        0.72500000
      2.26000000        2.25900000        2.26000000
      1.55100000        1.55000000        1.55000000
      1.73300000        8.82200000        3.15600000
