1   
      1.000000000000
     13.551967620850        0.000000000000        0.000000000000
     -6.775737762451       11.735921859741        0.000000000000
      0.000000000000        0.000000000000       22.149789810181
C 
160 
Direct
     -0.211463764310       0.400006651878       0.477282196283 
     -0.010801531374       0.901932716370       0.408844977617 
     -0.010805146769       0.649629175663       0.276624292135 
     -0.112512812018       0.406406283379       0.496289104223 
      0.080303467810       0.905741810799       0.390668720007 
     -0.098244041204       0.540853500366       0.307247161865 
     -0.063855230808       0.511593699455       0.535670995712 
      0.042240876704       0.451363176107       0.444648891687 
      0.134319975972       0.758128523827       0.337667763233 
      0.689849615097       0.854592442513       0.977282464504 
      0.489186525345       0.352664411068       0.908843815327 
      0.489190220833       0.604969501495       0.776625931263 
      0.590897917747       0.848192334175      -0.003712134436 
      0.398081690073       0.348857760429       0.890667557716 
      0.576629877090       0.713745653629       0.807249188423 
      0.542240858078       0.743005275726       0.035671398044 
      0.436144798994       0.803235769272       0.944650053978 
      0.344065159559       0.496469318867       0.837669312954 
      0.189846962690       0.631697535515       0.477282196283 
     -0.200027048588       0.414234101772       0.408846288919 
      0.178417637944       0.749417185783       0.496289104223 
     -0.208985149860       0.524567365646       0.390669167042 
      0.076632410288       0.641814172268       0.307246714830 
      0.096270889044       0.712098002434       0.535670995712 
      0.134334743023       0.900918364525       0.444647580385 
     -0.101901069283       0.729810237885       0.337668210268 
      0.288538157940       0.622901082039       0.977282464504 
      0.678412199020       0.840364575386       0.908843815327 
      0.299968242645       0.505181968212      -0.003712843172 
      0.687370300293       0.730031371117       0.890667557716 
      0.401752740145       0.612784504890       0.807244718075 
      0.382114261389       0.542499899864       0.035671353340 
      0.344050407410       0.353680372238       0.944645524025 
      0.580286204815       0.524788498878       0.837669312954 
     -0.010800720192       0.917176961899       0.477282196283 
      0.178412467241       0.632718622684       0.408845394850 
     -0.098322995007       0.793059945107       0.496289104223 
      0.096267201006       0.518579721451       0.390669614077 
     -0.010803597048       0.766219079494       0.307246714830 
     -0.064831696451       0.725192070007       0.535670995712 
     -0.208989590406       0.596606016159       0.444648474455 
     -0.064834199846       0.460948914289       0.337668210268 
      0.489185780287       0.337421685457       0.977282464504 
      0.299972653389       0.621880054474       0.908843815327 
      0.576708137989       0.461537927389      -0.003712283447 
      0.382117956877       0.736018896103       0.890667557716 
      0.489188730717       0.488378703594       0.807244718075 
      0.543217062950       0.529406785965       0.035671714693 
      0.687374711037       0.657992720604       0.944650053978 
      0.543219268322       0.793649792671       0.837669312954 
      0.288536697626       0.622896850109       0.501900911331 
      0.489189475775       0.352666079998       0.570339500904 
      0.489190220833       0.604969501495       0.702557444572 
      0.387486189604       0.730754256248       0.482893973589 
      0.580295801163       0.454057395458       0.588515698910 
      0.401751250029       0.612782001495       0.671934127808 
      0.436141848564       0.681750714779       0.443512111902 
      0.542239367962       0.864488720894       0.534533262253 
      0.634313821793       0.664041042328       0.641514003277 
      0.189849182963       0.631702303886       0.001899882569 
     -0.010804187506       0.901931166649       0.070337913930 
     -0.010804703459       0.649629414082       0.202559038997 
      0.090898983181       0.523844480515       0.982894241810 
     -0.101909928024       0.800540864468       0.088514156640 
      0.076633892953       0.641815900803       0.171936631203 
      0.042243752629       0.572847425938       0.943512320518 
     -0.063853830099       0.390110224485       0.034534458071 
     -0.155928656459       0.590557575226       0.141515120864 
      0.689847469330       0.854593753815       0.501900911331 
      0.299970448017       0.621876239777       0.570339500904 
      0.678414344788       0.723673701286       0.482893973589 
      0.291010141373       0.501198649406       0.588515698910 
      0.576628446579       0.713746488094       0.671934127808 
      0.596266925335       0.666137576103       0.443511664867 
      0.634327113628       0.521267473698       0.534533262253 
      0.398092001677       0.419601202011       0.641514003277 
     -0.211462289095       0.400005012751       0.001899331808 
      0.178414687514       0.632722496986       0.070337466896 
     -0.200029253960       0.530924141407       0.982894241810 
      0.187375009060       0.753400027752       0.088514156640 
     -0.098243303597       0.540852189064       0.171936169267 
     -0.117881774902       0.588460326195       0.943512320518 
     -0.155941933393       0.733331263065       0.034534908831 
      0.080293133855       0.834997475147       0.141515120864 
      0.489188730717       0.337423384190       0.501900911331 
      0.678410708904       0.840367138386       0.570334970951 
      0.401669353247       0.360482633114       0.482893973589 
      0.596264660358       0.859653234482       0.588515698910 
      0.489189475775       0.488379180431       0.671938657761 
      0.435162633657       0.467024058104       0.443511217833 
      0.291004240513       0.429154038429       0.534533262253 
      0.435163348913       0.731265306473       0.641514003277 
     -0.010803671554       0.917175233364       0.001900388161 
     -0.200025573373       0.414231538773       0.070337012410 
      0.076716534793       0.894116461277       0.982894241810 
     -0.117879562080       0.394945472479       0.088513702154 
     -0.010804556310       0.766218483448       0.171936631203 
      0.043222729117       0.787574827671       0.943512320518 
      0.187380909920       0.825444638729       0.034535001963 
      0.043221991509       0.523332595825       0.141514658928 
      0.590895771980       0.848192811012       0.482893973589 
      0.398083895445       0.348858177662       0.588515698910 
      0.542239367962       0.743005275726       0.443511664867 
      0.436141848564       0.803233265877       0.534533262253 
      0.344065159559       0.496467590332       0.641514003277 
     -0.112510599196       0.406405866146       0.982894241810 
      0.080301254988       0.905740499496       0.088514611125 
     -0.063854120672       0.511593461037       0.943512320518 
      0.042243607342       0.451365619898       0.034534279257 
      0.134319975972       0.758131086826       0.141515120864 
      0.299967497587       0.505178987980       0.482893973589 
      0.687369585037       0.730033516884       0.588515698910 
      0.382114261389       0.542498171329       0.443511664867 
      0.344051897526       0.353678703308       0.534533262253 
      0.580287694931       0.524791121483       0.641514003277 
      0.178417637944       0.749419689178       0.982894241810 
     -0.208984404802       0.524564385414       0.088514156640 
      0.096270889044       0.712099730968       0.943512320518 
      0.134333252907       0.900919973850       0.034535273910 
     -0.101902544498       0.729807615280       0.141515120864 
      0.576710343361       0.461540937424       0.482893973589 
      0.382115721703       0.736015975475       0.588515698910 
      0.543218553066       0.529408454895       0.443511664867 
      0.687375485897       0.657995700836       0.534533262253 
      0.543217062950       0.793649315834       0.641514003277 
     -0.098324462771       0.793058216572       0.982894241810 
      0.096269421279       0.518582701683       0.088513702154 
     -0.064832948148       0.725190520287       0.943512320518 
     -0.208990320563       0.596603035927       0.034534819424 
     -0.064831987023       0.460949331522       0.141514658928 
      0.090896762908       0.523841500282       0.496289104223 
     -0.101908452809       0.800541698933       0.390669167042 
      0.042242649943       0.572845876217       0.535670995712 
     -0.063856557012       0.390109539032       0.444648891687 
     -0.155928656459       0.590559363365       0.337668210268 
      0.387488365173       0.730757176876      -0.003712527454 
      0.580293595791       0.454054415226       0.890667557716 
      0.436142593622       0.681751966476       0.035671129823 
      0.542241573334       0.864489078522       0.944650053978 
      0.634314477444       0.664038896561       0.837669312954 
     -0.200029253960       0.530927538872       0.496289104223 
      0.187375009060       0.753396570683       0.390668720007 
     -0.117881037295       0.588462412357       0.535670995712 
     -0.155939728022       0.733335018158       0.444648474455 
      0.080294616520       0.834996581078       0.337667763233 
      0.678414344788       0.723671078682      -0.003712310689 
      0.291010141373       0.501201272011       0.890667557716 
      0.596266925335       0.666135847569       0.035671491176 
      0.634325623512       0.521264016628       0.944650053978 
      0.398090511560       0.419602066278       0.837669312954 
      0.076718747616       0.894116044044       0.496289104223 
     -0.117881774902       0.394945889711       0.390669614077 
      0.043223980814       0.787574648857       0.535670995712 
      0.187381654978       0.825442552567       0.444647997618 
      0.043219778687       0.523330509663       0.337668210268 
      0.401667118073       0.360483080149      -0.003712387523 
      0.596267640591       0.859653234482       0.890667557716 
      0.435161173344       0.467024087906       0.035671852529 
      0.291003495455       0.429156184196       0.944650053978 
      0.435165584087       0.731267452240       0.837669312954 
