1   
      1.000000000000
     16.003620147705        0.000000000000        0.000000000000
     -8.001811027527       13.859542846680        0.000000000000
      0.000000000000        0.000000000000       26.149269104004
C
128 
Direct
      0.482010334730       0.693316936493       0.622300326824 
      0.482012212276       0.593636512756       0.649486601353 
      0.482009708881       0.488562315702       0.468728214502 
      0.482010334730       0.407057851553       0.509532392025 
      0.407224088907       0.395542651415       0.543510437012 
      0.606784582138       0.582486391068       0.517727673054 
      0.559320986271       0.586727201939       0.470261693001 
      0.559290945530       0.753074645996       0.595007061958 
      0.482016563416       0.593630313873       0.709209084511 
      0.262426257133       0.613255858421       0.489608347416 
     -0.017992427573       0.538601994514       0.122299402952 
     -0.017992865294       0.638294816017       0.149487540126 
     -0.017990117893       0.743361234665       0.968730688095 
     -0.017994929105       0.824861764908       0.009531470947 
      0.056795522571       0.836374342442       0.043509822339 
     -0.142765194178       0.649431228638       0.017725581303 
     -0.095300935209       0.645193755627       0.970264196396 
     -0.095270320773       0.478847324848       0.095006860793 
     -0.017990306020       0.638285517693       0.209213495255 
      0.201605007052       0.618693947792      -0.010388894007 
      0.407246589661       0.500623345375       0.622300326824 
      0.560811877251       0.691662788391       0.468728214502 
      0.621942996979       0.767704248428       0.509532392025 
      0.635587394238       0.684969186783       0.543506622314 
      0.482010334730       0.759998798370       0.517727673054 
      0.482007831335       0.696711659431       0.470261693001 
      0.357252299786       0.541469216347       0.595007061958 
      0.482010960579       0.300840348005       0.489619791508 
      0.056772466749       0.731297791004       0.122299782932 
     -0.096793100238       0.540257394314       0.968730688095 
     -0.157923012972       0.464212268591       0.009534874931 
     -0.171566814184       0.546952009201       0.043508291245 
     -0.017989743501       0.471923172474       0.017726996914 
     -0.017989054322       0.535208463669       0.970264196396 
      0.106767095625       0.690452754498       0.095008008182 
     -0.017975494266       0.931088626385      -0.010380405001 
      0.556775867939       0.586955547333       0.622300326824 
      0.403205662966       0.600668847561       0.468732029200 
      0.342075109482       0.606125354767       0.509536266327 
      0.403220027685       0.700383901596       0.543510437012 
      0.357234805822       0.438408792019       0.517727673054 
      0.404697209597       0.497455120087       0.470265537500 
      0.529490828514       0.486352652311       0.595007061958 
      0.701591253281       0.866820812225       0.489619791508 
     -0.092757761478       0.644966483116       0.122299022973 
      0.060813300312       0.631252169609       0.968730688095 
      0.121940538287       0.625786483288       0.009535410441 
      0.060798492283       0.531536161900       0.043510586023 
      0.106784589589       0.793508887291       0.017727799714 
      0.059321891516       0.734465956688       0.970264196396 
     -0.065471440554       0.745566427708       0.095006480813 
     -0.237567499280       0.365124583244      -0.010392757133 
     -0.017988367006       0.538604378700       0.341719716787 
     -0.017987241969       0.638297379017       0.314531534910 
     -0.017990868539       0.743360757828       0.495291084051 
     -0.017989680171       0.824864804745       0.454486876726 
     -0.092775888741       0.750019252300       0.420508891344 
      0.106784589589       0.793508887291       0.446291655302 
      0.059320952743       0.734464704990       0.493757575750 
      0.059289962053       0.568082034588       0.369012624025 
     -0.017991742119       0.638285338879       0.254805982113 
     -0.237573757768       0.365100026131       0.474399507046 
      0.482008457184       0.693315148354       0.841721475124 
      0.482010960579       0.593634366989       0.814531385899 
      0.482010334730       0.488561987877      -0.004710189067 
      0.482013463974       0.407058894634       0.954485595226 
      0.556795239449       0.481898337603       0.920507609844 
      0.357234179974       0.438409149647       0.946294128895 
      0.404698461294       0.497456550598      -0.006243310403 
      0.404729038477       0.663838267326       0.869010925293 
      0.482003450394       0.593628525734       0.754808843136 
      0.701584994793       0.866794824600       0.974409639835 
     -0.092753387988       0.644968211651       0.341719716787 
      0.060811806470       0.631249845028       0.495291084051 
      0.121943660080       0.625794112682       0.454483091831 
      0.135586187243       0.724288344383       0.420512735844 
     -0.017991492525       0.471922159195       0.446291655302 
     -0.017990741879       0.535207509995       0.493757575750 
     -0.142747715116       0.546395301819       0.369011461735 
     -0.017990741879       0.931079864502       0.474399507046 
      0.556772112846       0.586951971054       0.841717600822 
      0.403208136559       0.600670218468      -0.004709959496 
      0.342079490423       0.606135845184       0.954485595226 
      0.328432589769       0.507632553577       0.920511364937 
      0.482009708881       0.759997665882       0.946294128895 
      0.482010334730       0.696713864803      -0.006244113203 
      0.606767117977       0.685526609421       0.869010925293 
      0.481994092464       0.300831109285       0.974402010441 
      0.056776653975       0.731299400330       0.341720461845 
     -0.096793726087       0.540257692337       0.495287269354 
     -0.157924264669       0.464216619730       0.454486876726 
     -0.096779979765       0.440558910370       0.420508891344 
     -0.142764568329       0.649438798428       0.446291655302 
     -0.095302812755       0.645194053650       0.493753761053 
      0.029490765184       0.800392866135       0.369012624025 
      0.201592519879       0.618663668633       0.474410980940 
      0.407242864370       0.500621199608       0.841721475124 
      0.560814380646       0.691664278507      -0.004711680580 
      0.621942996979       0.767707169056       0.954481720924 
      0.560800611973       0.791361689568       0.920511364937 
      0.606784582138       0.582486391068       0.946290314198 
      0.559321582317       0.586726844311      -0.006244342774 
      0.434528559446       0.431526154280       0.869010925293 
      0.262415021658       0.613229155540       0.974409639835 
      0.056797210127       0.836375355721       0.420508891344 
     -0.095269069076       0.478848069906       0.369011849165 
      0.407222211361       0.395542293787       0.920511364937 
      0.559287846088       0.753072142601       0.869010925293 
     -0.171566188335       0.546953797340       0.420508891344 
      0.106768973172       0.690452456474       0.369012624025 
      0.635587394238       0.684969186783       0.920507609844 
      0.357249796391       0.541467785835       0.869010925293 
      0.060799181461       0.531536519527       0.420508891344 
     -0.065467685461       0.745568573475       0.369012206793 
      0.403220653534       0.700384974480       0.920511364937 
      0.529487073421       0.486349761486       0.869010925293 
      0.556797146797       0.481899440289       0.543510437012 
      0.404730916023       0.663838624954       0.595007061958 
     -0.092777758837       0.750018179417       0.043509054929 
      0.059287898242       0.568081557751       0.095008008182 
      0.328433841467       0.507631838322       0.543510437012 
      0.606768965721       0.685527682304       0.595007061958 
      0.135585561395       0.724288702011       0.043510586023 
     -0.142750188708       0.546392440796       0.095006093383 
      0.560799360275       0.791362404823       0.543510437012 
      0.434531688690       0.431527256966       0.595007061958 
     -0.096781231463       0.440558195114       0.043508671224 
      0.029487203807       0.800390839577       0.095007240772 
