1   
      1.000000000000
      7.097250938416        0.000000000000        0.000000000000
      0.000000000000        7.097200870514        0.000000000000
      0.000000000000        0.000000000000       24.587783813477
C
32 
Direct
      0.654818296432       0.737201929092       0.262497842312 
      0.470463842154       0.229946985841       0.541675508022 
      0.477372169495       0.734288096428       0.350007563829 
      0.304702490568       0.737207531929       0.262484401464 
      0.655363619328       0.222794875503       0.737467825413 
      0.470286309719       0.730082213879       0.458300769329 
      0.477792054415       0.225722789764       0.649969100952 
      0.305197030306       0.222797706723       0.737516641617 
      0.470338433981       0.554973721504       0.487498164177 
      0.979827284813       0.737155377865       0.208320111036 
      0.474124431610       0.731830775738       0.399959594011 
      0.470337033272       0.905015945435       0.487514466047 
     -0.010437084362       0.554889202118       0.012502673082 
      0.479649096727       0.737211763859       0.291664361954 
     -0.014478845522       0.731826543808       0.100026093423 
     -0.010431559756       0.904935657978       0.012482336722 
     -0.010384401307       0.405031502247       0.987498462200 
      0.480130970478       0.222808972001       0.708311080933 
     -0.014134909026       0.228075832129       0.899991631508 
     -0.010384838097       0.054889246821       0.987510740757 
      0.470389157534       0.405134350061       0.512514650822 
     -0.019679309800       0.222804740071       0.791693925858 
      0.474433004856       0.228170230985       0.600013434887 
      0.470391988754       0.054947860539       0.512494325638 
      0.805153965950       0.222794875503       0.762500584126 
     -0.010502827354       0.730014562607       0.041686553508 
     -0.017369965091       0.225663617253       0.850035905838 
      0.155253067613       0.222797706723       0.762492418289 
      0.804656565189       0.737184941769       0.237483784556 
     -0.010335142724       0.229865267873       0.958329558372 
     -0.017844373360       0.734261333942       0.149977326393 
      0.154716238379       0.737192034721       0.237527713180 
