&CONTROL
   calculation      = 'relax'
   restart_mode     = 'from_scratch'
   nstep            = 1000
   tprnfor          = .true.
   etot_conv_thr    = 0.0001
   forc_conv_thr    = 0.001
/
&SYSTEM
   tot_magnetization = 0
   ecutwfc          = 50
   ecutrho          = 400
   occupations      = 'smearing'
   degauss          = 0.0001
   smearing         = 'gaussian'
   nspin            = 2
   input_dft        = 'pbe'
   ntyp             = 3
   nat              = 51
   ibrav            = 0
/
&ELECTRONS
   electron_maxstep = 100
   scf_must_converge = .false.
   conv_thr         = 1e-06
   mixing_mode      = 'plain'
   mixing_beta      = 0.3
   diagonalization  = 'david'
/
&IONS
   ion_dynamics     = 'bfgs'
   bfgs_ndim        = 1
/
&CELL
/
&FCP
/
&RISM
/
ATOMIC_SPECIES
C  12.011 C.pbe-n-kjpaw_psl.1.0.0.UPF
O  15.999 O.pbe-n-kjpaw_psl.0.1.UPF
H  1.008 H.pbe-rrkjus_psl.1.0.0.UPF

K_POINTS gamma

CELL_PARAMETERS angstrom
11.00000000000000 0.00000000000000 0.00000000000000
0.00000000000000 11.00200000000000 0.00000000000000
0.00000000000000 0.00000000000000 11.00000000000000

ATOMIC_POSITIONS angstrom
C  6.1680000000 4.6080000000 6.1690000000  
C  7.6840000000 3.0860000000 7.6840000000  
C  6.9740000000 3.7990000000 6.9740000000  
C  4.6080000000 6.1690000000 6.1690000000  
C  3.0860000000 7.6840000000 7.6840000000  
C  3.7990000000 6.9740000000 6.9740000000  
C  6.1690000000 6.1690000000 4.6080000000  
C  7.6840000000 7.6840000000 3.0860000000  
C  6.9740000000 6.9740000000 3.7990000000  
C  4.6030000000 4.6030000000 4.6030000000  
C  3.0850000000 3.0850000000 3.0850000000  
C  3.7960000000 3.7960000000 3.7960000000  
C  6.2250000000 4.5460000000 4.5460000000  
C  7.7640000000 3.0130000000 3.0130000000  
C  7.0530000000 3.7210000000 3.7220000000  
C  4.5460000000 6.2250000000 4.5460000000  
C  3.0130000000 7.7650000000 3.0130000000  
C  3.7210000000 7.0530000000 3.7220000000  
C  4.5460000000 4.5450000000 6.2260000000  
C  3.0130000000 3.0130000000 7.7640000000  
C  3.7210000000 3.7210000000 7.0530000000  
C  6.2290000000 6.2290000000 6.2290000000  
C  7.7640000000 7.7650000000 7.7650000000  
C  7.0550000000 7.0560000000 7.0550000000  
C  0.6680000000 10.1030000000 0.6680000000  
C  2.1880000000 8.5890000000 2.1880000000  
C  1.4760000000 9.2980000000 1.4760000000  
C  10.1020000000 0.6670000000 0.6680000000  
C  8.5890000000 2.1870000000 2.1880000000  
C  9.2980000000 1.4750000000 1.4760000000  
C  0.6680000000 0.6670000000 10.1030000000  
C  2.1870000000 2.1870000000 8.5890000000  
C  1.4760000000 1.4750000000 9.2980000000  
C  10.1080000000 10.1080000000 10.1070000000  
C  8.5900000000 8.5900000000 8.5900000000  
C  9.3010000000 9.3010000000 9.3000000000  
C  0.7290000000 10.0460000000 10.0460000000  
C  2.2590000000 8.5090000000 8.5080000000  
C  1.5520000000 9.2190000000 9.2190000000  
C  10.0450000000 0.7280000000 10.0460000000  
C  8.5080000000 2.2590000000 8.5080000000  
C  9.2180000000 1.5510000000 9.2180000000  
C  10.0460000000 10.0470000000 0.7290000000  
C  8.5080000000 8.5090000000 2.2590000000  
C  9.2190000000 9.2190000000 1.5520000000  
C  0.7260000000 0.7250000000 0.7250000000  
C  2.2600000000 2.2590000000 2.2600000000  
C  1.5510000000 1.5500000000 1.5500000000  
O  6.4570000000 6.9740000000 8.2720000000  
O  7.5710000000 6.9810000000 9.2760000000  
H  6.9650000000 6.5910000000 9.9330000000  

