&CONTROL
   calculation      = 'relax'
   restart_mode     = 'from_scratch'
   nstep            = 1000
   tprnfor          = .true.
   etot_conv_thr    = 0.0001
   forc_conv_thr    = 0.001
/
&SYSTEM
   tot_magnetization = 0
   ecutwfc          = 50
   ecutrho          = 400
   occupations      = 'smearing'
   degauss          = 0.0001
   smearing         = 'gaussian'
   nspin            = 2
   input_dft        = 'pbe'
   ntyp             = 1
   nat              = 200
   ibrav            = 0
/
&ELECTRONS
   electron_maxstep = 100
   scf_must_converge = .false.
   conv_thr         = 1e-06
   mixing_mode      = 'plain'
   mixing_beta      = 0.3
   diagonalization  = 'david'
/
&IONS
   ion_dynamics     = 'bfgs'
   bfgs_ndim        = 1
/
&CELL
/
&FCP
/
&RISM
/
ATOMIC_SPECIES
C  12.011 C.pbe-n-kjpaw_psl.1.0.0.UPF

K_POINTS gamma

CELL_PARAMETERS angstrom
16.11415100097700 0.00000000000000 0.00000000000000
0.00000000000000 16.11281967163100 0.00000000000000
0.00000000000000 0.00000000000000 16.11230850219700

ATOMIC_POSITIONS angstrom
C  9.4148594152 10.4168993635 13.6155993332  
C  8.7538899819 10.7407996525 12.3657998744  
C  8.7548101201 5.3640098122 1.2192699468  
C  9.4709196490 11.2112001490 11.2110999385  
C  5.3836496145 5.3838799851 5.3839699248  
C  16.0956003241 5.6294698286 9.4337902717  
C  6.6621398069 5.6601199988 13.6155993332  
C  7.3231102007 5.3361702493 12.3657998744  
C  7.3221895823 10.7129999461 1.2192699468  
C  6.6060800534 4.8657596686 11.2110999385  
C  10.6934000328 10.6930995206 5.3839699248  
C  16.0956003241 10.4475005534 9.4337902717  
C  9.4148594152 5.6601199988 2.4613700119  
C  8.7538899819 5.3361702493 3.7111999624  
C  8.7548101201 10.7129999461 14.8577004787  
C  9.4709196490 4.8657596686 4.8659102223  
C  5.3836496145 10.6930995206 10.6929994203  
C  16.0956003241 10.4475005534 6.6432098052  
C  6.6621398069 10.4168993635 2.4613700119  
C  7.3231102007 10.7407996525 3.7111999624  
C  7.3221895823 5.3640098122 14.8577004787  
C  6.6060800534 11.2112001490 4.8659102223  
C  10.6934000328 5.3838799851 10.6929994203  
C  -0.0185752009 5.6294698286 6.6432098052  
C  13.6163994677 9.4147701783 10.4167993821  
C  12.3665003115 8.7538793634 10.7407998379  
C  1.2184400119 8.7547907819 5.3641200698  
C  11.2117000274 9.4708200181 11.2110999385  
C  9.4338903312 -0.0179091003 5.6295198047  
C  13.6163994677 6.6622299760 5.6601598792  
C  12.3665003115 7.3231203107 5.3361800712  
C  1.2184400119 7.3222098526 10.7129001748  
C  11.2117000274 6.6061801362 4.8658598029  
C  9.4338903312 -0.0179091003 10.4475004399  
C  2.4606199245 9.4147701783 5.6601598792  
C  3.7104698562 8.7538793634 5.3361800712  
C  14.8585994303 8.7547907819 10.7129001748  
C  4.8653102403 9.4708200181 4.8658598029  
C  6.6431098514 16.0949005491 10.4475004399  
C  2.4606199245 6.6622299760 10.4167993821  
C  3.7104698562 7.3231203107 10.7407998379  
C  14.8585994303 7.3222098526 5.3641200698  
C  4.8653102403 6.6061801362 11.2110999385  
C  6.6431098514 16.0949005491 5.6295198047  
C  10.4171002161 13.6158997189 9.4148393215  
C  10.7412001537 12.3660999860 8.7538791983  
C  5.3637802010 1.2190400771 8.7548001917  
C  11.2117000274 11.2113000305 9.4707903860  
C  5.6292703152 9.4339195718 16.0947001471  
C  5.6599201366 13.6158997189 6.6621597950  
C  5.3358101140 12.3660999860 7.3231199182  
C  10.7131993313 1.2190400771 7.3221998852  
C  4.8652900703 11.2113000305 6.6062101711  
C  10.4476991321 9.4339195718 -0.0176538000  
C  5.6599201366 2.4611498960 9.4148393215  
C  5.3358101140 3.7109301808 8.7538791983  
C  10.7131993313 14.8579999338 8.7548001917  
C  4.8652900703 4.8656900397 9.4707903860  
C  10.4476991321 6.6430801023 16.0947001471  
C  10.4171002161 2.4611498960 6.6621597950  
C  10.7412001537 3.7109301808 7.3231199182  
C  5.3637802010 14.8579999338 7.3221998852  
C  11.2117000274 4.8656900397 6.6062101711  
C  5.6292703152 6.6430801023 -0.0176538000  
C  5.6599302216 6.6621396985 2.4613599280  
C  5.3358499739 7.3231203107 3.7111399394  
C  10.7131993313 7.3221896842 14.8577004787  
C  4.8653102403 6.6061801362 4.8658598029  
C  10.6934000328 10.6930995206 10.6929994203  
C  10.4476991321 16.0949005491 6.6431200108  
C  10.4171002161 9.4148594954 2.4613599280  
C  10.7412001537 8.7538793634 3.7111399394  
C  5.3637802010 8.7548099899 14.8577004787  
C  11.2117000274 9.4708200181 4.8658598029  
C  5.3836496145 5.3838799851 10.6929994203  
C  5.6292799200 -0.0179091003 6.6431200108  
C  10.4171002161 6.6621396985 13.6155993332  
C  10.7412001537 7.3231203107 12.3658997527  
C  5.3637802010 7.3221896842 1.2192699468  
C  11.2117000274 6.6061801362 11.2110999385  
C  5.3836496145 10.6930995206 5.3839699248  
C  5.6292799200 16.0949005491 9.4338795859  
C  5.6599302216 9.4148594954 13.6155993332  
C  5.3358499739 8.7538793634 12.3658997527  
C  10.7131993313 8.7548099899 1.2192699468  
C  4.8653102403 9.4708200181 11.2110999385  
C  10.6934000328 5.3838799851 5.3839699248  
C  10.4476991321 -0.0179091003 9.4338795859  
C  6.6621700620 2.4611700644 5.6601901308  
C  7.3231102007 3.7110098939 5.3362597818  
C  7.3221996673 14.8579999338 10.7129001748  
C  6.6060800534 4.8657596686 4.8659102223  
C  16.0956003241 6.6432097561 10.4475004399  
C  9.4148306009 2.4611700644 10.4167993821  
C  8.7538899819 3.7110098939 10.7406999596  
C  8.7547995548 14.8579999338 5.3641099859  
C  9.4709196490 4.8657596686 11.2110999385  
C  -0.0185752009 6.6432097561 5.6295399725  
C  6.6621700620 13.6157998374 10.4167993821  
C  7.3231102007 12.3660001045 10.7406999596  
C  7.3221996673 1.2190400771 5.3641099859  
C  6.6060800534 11.2112001490 11.2110999385  
C  -0.0185752009 9.4337899180 5.6295399725  
C  9.4148306009 13.6157998374 5.6601901308  
C  8.7538899819 12.3660001045 5.3362597818  
C  8.7547995548 1.2190400771 10.7129001748  
C  9.4709196490 11.2112001490 4.8659102223  
C  16.0956003241 9.4337899180 10.4475004399  
C  2.4606199245 5.6600897463 6.6622299019  
C  3.7104499263 5.3360501994 7.3231300020  
C  14.8585994303 10.7129999461 7.3222099691  
C  4.8652900703 4.8656900397 6.6062101711  
C  6.6430699916 10.4476004349 -0.0176538000  
C  2.4606199245 10.4168993635 9.4147701750  
C  3.7104499263 10.7409004943 8.7538695946  
C  14.8585994303 5.3640299806 8.7547905880  
C  4.8652900703 11.2113000305 9.4707903860  
C  6.6430699916 5.6294496602 -0.0176538000  
C  13.6163994677 10.4168993635 6.6622299019  
C  12.3665003115 10.7409004943 7.3231300020  
C  1.2184400119 5.3640299806 7.3222099691  
C  11.2117000274 11.2113000305 6.6062101711  
C  9.4339306713 5.6294496602 -0.0176538000  
C  13.6163994677 5.6600897463 9.4147701750  
C  12.3665003115 5.3360501994 8.7538695946  
C  1.2184400119 10.7129999461 8.7547905880  
C  11.2117000274 4.8656900397 9.4707903860  
C  9.4339306713 10.4476004349 -0.0176538000  
C  6.6621398069 5.6601199988 2.4613700119  
C  7.3231102007 5.3361702493 3.7111999624  
C  7.3221895823 10.7129999461 14.8577004787  
C  9.4148594152 10.4168993635 2.4613700119  
C  8.7538899819 10.7407996525 3.7111999624  
C  8.7548101201 5.3640098122 14.8577004787  
C  6.6621398069 10.4168993635 13.6155993332  
C  7.3231102007 10.7407996525 12.3657998744  
C  7.3221895823 5.3640098122 1.2192699468  
C  9.4148594152 5.6601199988 13.6155993332  
C  8.7538899819 5.3361702493 12.3657998744  
C  8.7548101201 10.7129999461 1.2192699468  
C  2.4606199245 6.6622299760 5.6601598792  
C  3.7104698562 7.3231203107 5.3361800712  
C  14.8585994303 7.3222098526 10.7129001748  
C  2.4606199245 9.4147701783 10.4167993821  
C  3.7104698562 8.7538793634 10.7407998379  
C  14.8585994303 8.7547907819 5.3641200698  
C  13.6163994677 6.6622299760 10.4167993821  
C  12.3665003115 7.3231203107 10.7407998379  
C  1.2184400119 7.3222098526 5.3641200698  
C  13.6163994677 9.4147701783 5.6601598792  
C  12.3665003115 8.7538793634 5.3361800712  
C  1.2184400119 8.7547907819 10.7129001748  
C  5.6599201366 2.4611498960 6.6621597950  
C  5.3358101140 3.7109301808 7.3231199182  
C  10.7131993313 14.8579999338 7.3221998852  
C  10.4171002161 2.4611498960 9.4148393215  
C  10.7412001537 3.7109301808 8.7538791983  
C  5.3637802010 14.8579999338 8.7548001917  
C  10.4171002161 13.6158997189 6.6621597950  
C  10.7412001537 12.3660999860 7.3231199182  
C  5.3637802010 1.2190400771 7.3221998852  
C  5.6599201366 13.6158997189 9.4148393215  
C  5.3358101140 12.3660999860 8.7538791983  
C  10.7131993313 1.2190400771 8.7548001917  
C  10.4171002161 9.4148594954 13.6155993332  
C  10.7412001537 8.7538793634 12.3658997527  
C  5.3637802010 8.7548099899 1.2192699468  
C  5.6599302216 6.6621396985 13.6155993332  
C  5.3358499739 7.3231203107 12.3658997527  
C  10.7131993313 7.3221896842 1.2192699468  
C  5.6599302216 9.4148594954 2.4613599280  
C  5.3358499739 8.7538793634 3.7111399394  
C  10.7131993313 8.7548099899 14.8577004787  
C  10.4171002161 6.6621396985 2.4613599280  
C  10.7412001537 7.3231203107 3.7111399394  
C  5.3637802010 7.3221896842 14.8577004787  
C  9.4148306009 13.6157998374 10.4167993821  
C  8.7538899819 12.3660001045 10.7406999596  
C  8.7547995548 1.2190400771 5.3641099859  
C  6.6621700620 13.6157998374 5.6601901308  
C  7.3231102007 12.3660001045 5.3362597818  
C  7.3221996673 1.2190400771 10.7129001748  
C  9.4148306009 2.4611700644 5.6601901308  
C  8.7538899819 3.7110098939 5.3362597818  
C  8.7547995548 14.8579999338 10.7129001748  
C  6.6621700620 2.4611700644 10.4167993821  
C  7.3231102007 3.7110098939 10.7406999596  
C  7.3221996673 14.8579999338 5.3641099859  
C  13.6163994677 10.4168993635 9.4147701750  
C  12.3665003115 10.7409004943 8.7538695946  
C  1.2184400119 5.3640299806 8.7547905880  
C  13.6163994677 5.6600897463 6.6622299019  
C  12.3665003115 5.3360501994 7.3231300020  
C  1.2184400119 10.7129999461 7.3222099691  
C  2.4606199245 5.6600897463 9.4147701750  
C  3.7104499263 5.3360501994 8.7538695946  
C  14.8585994303 10.7129999461 8.7547905880  
C  2.4606199245 10.4168993635 6.6622299019  
C  3.7104499263 10.7409004943 7.3231300020  
C  14.8585994303 5.3640299806 7.3222099691  

