&CONTROL
   calculation      = 'relax'
   restart_mode     = 'from_scratch'
   nstep            = 1000
   tprnfor          = .true.
   etot_conv_thr    = 0.0001
   forc_conv_thr    = 0.001
/
&SYSTEM
   tot_magnetization = 0
   ecutwfc          = 50
   ecutrho          = 400
   occupations      = 'smearing'
   degauss          = 0.0001
   smearing         = 'gaussian'
   nspin            = 2
   input_dft        = 'pbe'
   ntyp             = 2
   nat              = 129
   ibrav            = 0
/
&ELECTRONS
   electron_maxstep = 100
   scf_must_converge = .false.
   conv_thr         = 1e-06
   mixing_mode      = 'plain'
   mixing_beta      = 0.3
   diagonalization  = 'david'
/
&IONS
   ion_dynamics     = 'bfgs'
   bfgs_ndim        = 1
/
&CELL
/
&FCP
/
&RISM
/
ATOMIC_SPECIES
C  12.011 C.pbe-n-kjpaw_psl.1.0.0.UPF
O  15.999 O.pbe-n-kjpaw_psl.0.1.UPF

K_POINTS gamma

CELL_PARAMETERS angstrom
18.76200000000000 0.00000000000000 0.00000000000000
0.00000000000000 18.76200000000000 0.00000000000000
0.00000000000000 0.00000000000000 18.76100000000000

ATOMIC_POSITIONS angstrom
C  3.1200000000 3.1190000000 3.1210000000  
C  14.9760000000 14.9760000000 14.9750000000  
C  14.9760000000 14.9760000000 3.1200000000  
C  3.1200000000 3.1200000000 14.9760000000  
C  14.9760000000 3.1190000000 14.9750000000  
C  3.1200000000 14.9760000000 3.1200000000  
C  3.1200000000 14.9760000000 14.9760000000  
C  14.9760000000 3.1200000000 3.1200000000  
C  12.5010000000 12.5010000000 12.5010000000  
C  5.5950000000 5.5960000000 5.5950000000  
C  5.5950000000 5.5950000000 12.5000000000  
C  12.5010000000 12.5010000000 5.5950000000  
C  5.5950000000 12.5010000000 5.5960000000  
C  12.5010000000 5.5960000000 12.5010000000  
C  12.5010000000 5.5950000000 5.5950000000  
C  5.5950000000 12.5010000000 12.5000000000  
C  4.0110000000 4.0110000000 4.0120000000  
C  14.0840000000 14.0850000000 14.0840000000  
C  14.0850000000 14.0850000000 4.0110000000  
C  4.0110000000 4.0110000000 14.0840000000  
C  14.0850000000 4.0110000000 14.0840000000  
C  4.0110000000 14.0850000000 4.0110000000  
C  4.0110000000 14.0850000000 14.0840000000  
C  14.0840000000 4.0110000000 4.0110000000  
C  13.3910000000 13.3930000000 13.3920000000  
C  4.7040000000 4.7040000000 4.7040000000  
C  4.7040000000 4.7040000000 13.3920000000  
C  13.3920000000 13.3920000000 4.7040000000  
C  4.7040000000 13.3920000000 4.7050000000  
C  13.3920000000 4.7030000000 13.3920000000  
C  13.3920000000 4.7040000000 4.7040000000  
C  4.7040000000 13.3920000000 13.3910000000  
C  0.4140000000 3.4560000000 3.4560000000  
C  17.6820000000 14.6400000000 14.6390000000  
C  17.6820000000 14.6400000000 3.4570000000  
C  0.4140000000 3.4560000000 14.6390000000  
C  17.6820000000 3.4560000000 14.6390000000  
C  0.4140000000 14.6400000000 3.4570000000  
C  0.4140000000 14.6400000000 14.6390000000  
C  17.6820000000 3.4560000000 3.4560000000  
C  3.4560000000 0.4130000000 3.4560000000  
C  14.6400000000 17.6820000000 14.6390000000  
C  3.4560000000 17.6820000000 14.6390000000  
C  14.6400000000 0.4140000000 3.4570000000  
C  14.6400000000 17.6820000000 3.4570000000  
C  3.4560000000 0.4140000000 14.6390000000  
C  14.6400000000 0.4130000000 14.6390000000  
C  3.4560000000 17.6820000000 3.4560000000  
C  3.4560000000 3.4560000000 0.4140000000  
C  14.6400000000 14.6400000000 17.6820000000  
C  14.6400000000 3.4560000000 17.6820000000  
C  3.4560000000 14.6400000000 0.4140000000  
C  3.4560000000 14.6400000000 17.6820000000  
C  14.6400000000 3.4560000000 0.4140000000  
C  14.6400000000 14.6400000000 0.4140000000  
C  3.4560000000 3.4560000000 17.6820000000  
C  9.7950000000 12.8370000000 12.8370000000  
C  8.3010000000 5.2590000000 5.2590000000  
C  8.3010000000 5.2590000000 12.8370000000  
C  9.7940000000 12.8370000000 5.2590000000  
C  8.3010000000 12.8370000000 5.2590000000  
C  9.7940000000 5.2590000000 12.8370000000  
C  9.7950000000 5.2590000000 5.2590000000  
C  8.3020000000 12.8370000000 12.8370000000  
C  12.8370000000 9.7940000000 12.8370000000  
C  5.2590000000 8.3010000000 5.2590000000  
C  12.8370000000 8.3010000000 5.2590000000  
C  5.2590000000 9.7950000000 12.8370000000  
C  5.2590000000 8.3010000000 12.8370000000  
C  12.8370000000 9.7940000000 5.2590000000  
C  5.2590000000 9.7940000000 5.2590000000  
C  12.8370000000 8.3010000000 12.8370000000  
C  12.8370000000 12.8370000000 9.7940000000  
C  5.2590000000 5.2590000000 8.3010000000  
C  5.2590000000 12.8370000000 8.3010000000  
C  12.8370000000 5.2590000000 9.7950000000  
C  12.8370000000 5.2590000000 8.3010000000  
C  5.2590000000 12.8370000000 9.7940000000  
C  5.2590000000 5.2590000000 9.7940000000  
C  12.8370000000 12.8370000000 8.3010000000  
C  1.6120000000 3.3540000000 3.3540000000  
C  16.4830000000 14.7420000000 14.7410000000  
C  16.4840000000 14.7420000000 3.3540000000  
C  1.6120000000 3.3540000000 14.7420000000  
C  16.4830000000 3.3540000000 14.7410000000  
C  1.6120000000 14.7420000000 3.3540000000  
C  1.6120000000 14.7420000000 14.7410000000  
C  16.4830000000 3.3540000000 3.3540000000  
C  3.3530000000 1.6120000000 3.3540000000  
C  14.7420000000 16.4830000000 14.7410000000  
C  3.3540000000 16.4830000000 14.7410000000  
C  14.7420000000 1.6120000000 3.3540000000  
C  14.7420000000 16.4830000000 3.3540000000  
C  3.3540000000 1.6120000000 14.7420000000  
C  14.7420000000 1.6120000000 14.7410000000  
C  3.3540000000 16.4830000000 3.3540000000  
C  3.3540000000 3.3540000000 1.6130000000  
C  14.7420000000 14.7420000000 16.4830000000  
C  14.7420000000 3.3540000000 16.4830000000  
C  3.3540000000 14.7420000000 1.6120000000  
C  3.3530000000 14.7420000000 16.4830000000  
C  14.7420000000 3.3540000000 1.6120000000  
C  14.7420000000 14.7420000000 1.6130000000  
C  3.3540000000 3.3540000000 16.4830000000  
C  10.9930000000 12.7340000000 12.7340000000  
C  7.1030000000 5.3610000000 5.3610000000  
C  7.1030000000 5.3610000000 12.7350000000  
C  10.9930000000 12.7350000000 5.3610000000  
C  7.1030000000 12.7350000000 5.3610000000  
C  10.9930000000 5.3610000000 12.7350000000  
C  10.9930000000 5.3610000000 5.3610000000  
C  7.1030000000 12.7350000000 12.7350000000  
C  12.7350000000 10.9930000000 12.7350000000  
C  5.3620000000 7.1030000000 5.3610000000  
C  12.7350000000 7.1030000000 5.3610000000  
C  5.3610000000 10.9930000000 12.7350000000  
C  5.3610000000 7.1030000000 12.7350000000  
C  12.7340000000 10.9930000000 5.3610000000  
C  5.3610000000 10.9930000000 5.3610000000  
C  12.7340000000 7.1030000000 12.7350000000  
C  12.7350000000 12.7340000000 10.9930000000  
C  5.3610000000 5.3610000000 7.1030000000  
C  5.3610000000 12.7350000000 7.1030000000  
C  12.7350000000 5.3610000000 10.9930000000  
C  12.7350000000 5.3610000000 7.1030000000  
C  5.3610000000 12.7350000000 10.9930000000  
C  5.3610000000 5.3610000000 10.9930000000  
C  12.7340000000 12.7340000000 7.1030000000  
O  12.0240000000 5.7610000000 13.7610000000  

