1   
      1.000000000000
     19.017702102661        0.000000000000        0.000000000000
      0.000000000000       19.017747879028        0.000000000000
      0.000000000000        0.000000000000       19.017702102661
C
320 
Direct
      0.923444926739       0.321642696857       0.233099147677 
      0.853141963482       0.299712687731       0.245239406824 
      0.522183001041       0.522182226181       0.022183174267 
      0.321643471718       0.923442661762       0.233099147677 
      0.391944289207       0.945374846458       0.245239406824 
      0.722905457020       0.722903668880       0.022183174267 
      0.923444926739       0.923442661762       0.011989723891 
      0.853141963482       0.945374846458      -0.000150825785 
      0.522183001041       0.722903668880       0.222905486822 
      0.321643471718       0.321642696857       0.011989723891 
      0.391944289207       0.299712687731      -0.000150825785 
      0.722905457020       0.522182226181       0.222905486822 
      0.233099147677       0.923442661762       0.321643471718 
      0.245239406824       0.853145122528       0.299713402987 
      0.022183174267       0.522182226181       0.522183001041 
      0.233099147677       0.321642696857       0.923444926739 
      0.245239406824       0.391942828894       0.945377171040 
      0.022183174267       0.722903668880       0.722905457020 
      0.011989723891       0.923442661762       0.923444926739 
     -0.000150988795       0.853145122528       0.945377171040 
      0.222905486822       0.522182226181       0.722905457020 
      0.011989723891       0.321642696857       0.321643471718 
     -0.000150988795       0.391942828894       0.299713402987 
      0.222905486822       0.722903668880       0.522183001041 
      0.321644008160       0.233098059893       0.923444926739 
      0.299713402987       0.245238289237       0.853141963482 
      0.522183001041       0.022182069719       0.522183001041 
      0.923444926739       0.233098059893       0.321644008160 
      0.945377171040       0.245238289237       0.391944289207 
      0.722905457020       0.022182069719       0.722905457020 
      0.923444926739       0.011988275684       0.923444926739 
      0.945377171040      -0.000152168912       0.853141963482 
      0.722905457020       0.222904413939       0.522183001041 
      0.321644008160       0.011988275684       0.321644008160 
      0.299713402987      -0.000152168912       0.391944289207 
      0.522183001041       0.222904413939       0.722905457020 
      0.673446238041       0.071642555296       0.761990070343 
      0.695373177528       0.141942679882       0.749848723412 
      0.472905695438       0.472904056311       0.972904026508 
      0.071643777192       0.673444628716       0.761990070343 
      0.049713525921       0.603141844273       0.749848723412 
      0.272183269262       0.272182077169       0.972904026508 
      0.071643777192       0.071642555296       0.983099877834 
      0.049713525921       0.141942679882       0.995241165161 
      0.272183269262       0.472904056311       0.772180557251 
      0.673446238041       0.673444628716       0.983099877834 
      0.695373177528       0.603141844273       0.995241165161 
      0.472905695438       0.272182077169       0.772180557251 
      0.071643777192       0.761988222599       0.673446238041 
      0.141944065690       0.749846935272       0.695373177528 
      0.472905695438       0.972901701927       0.472905695438 
      0.673446238041       0.761988222599       0.071643777192 
      0.603143334389       0.749846935272       0.049713578075 
      0.272183269262       0.972901701927       0.272183269262 
      0.071643777192       0.983097493649       0.071643777192 
      0.141944065690       0.995238780975       0.049713578075 
      0.472905695438       0.772183954716       0.272183269262 
      0.673446238041       0.983097493649       0.673446238041 
      0.603143334389       0.995238780975       0.695373177528 
      0.272183269262       0.772183954716       0.472905695438 
      0.761990070343       0.673444628716       0.071643777192 
      0.749848723412       0.695371508598       0.141944065690 
      0.972904026508       0.472904056311       0.472905695438 
      0.761990070343       0.071642555296       0.673446238041 
      0.749848723412       0.049712561071       0.603143334389 
      0.972904026508       0.272182077169       0.272183269262 
      0.983099877834       0.071642555296       0.071643777192 
      0.995241165161       0.049712561071       0.141944065690 
      0.772180557251       0.272182077169       0.472905695438 
      0.983099877834       0.673444628716       0.673446238041 
      0.995241165161       0.695371508598       0.603143334389 
      0.772180557251       0.472904056311       0.272183269262 
      0.571641087532       0.173443779349       0.761990070343 
      0.549714148045       0.103143654764       0.749848723412 
      0.772180557251       0.772183954716       0.972904026508 
      0.173444718122       0.571644961834       0.761990070343 
      0.195375338197       0.641942441463       0.749848723412 
      0.972904026508       0.972901701927       0.972904026508 
      0.173444718122       0.173443779349       0.983099877834 
      0.195375338197       0.103143654764       0.995241165161 
      0.972904026508       0.772183954716       0.772180557251 
      0.571641087532       0.571644961834       0.983099877834 
      0.549714148045       0.641942441463       0.995241165161 
      0.772180557251       0.972901701927       0.772180557251 
      0.173444718122       0.483098208904       0.673446238041 
      0.103144429624       0.495238423347       0.695373177528 
      0.571646332741       0.483098208904       0.071643777192 
      0.641943991184       0.495238423347       0.049713578075 
      0.173444718122       0.261988431215       0.071643777192 
      0.103144429624       0.249847680330       0.049713578075 
      0.571646332741       0.261988431215       0.673446238041 
      0.641943991184       0.249847680330       0.695373177528 
      0.483098864555       0.571644961834       0.071643777192 
      0.495239615440       0.549712836742       0.141944065690 
      0.483098864555       0.173443779349       0.673446238041 
      0.495239615440       0.195373818278       0.603143334389 
      0.261989593506       0.173443779349       0.071643777192 
      0.249849334359       0.195373818278       0.141944065690 
      0.261989593506       0.571644961834       0.673446238041 
      0.249849334359       0.549712836742       0.603143334389 
      0.571641087532       0.071642555296       0.483098864555 
      0.549714148045       0.141942679882       0.495239615440 
      0.173444718122       0.673444628716       0.483098864555 
      0.195375338197       0.603141844273       0.495239615440 
      0.173444718122       0.071642555296       0.261989593506 
      0.195375338197       0.141942679882       0.249848812819 
      0.571641087532       0.673444628716       0.261989593506 
      0.549714148045       0.603141844273       0.249848812819 
      0.173444718122       0.761988222599       0.571646332741 
      0.103144429624       0.749846935272       0.549714148045 
      0.571646332741       0.761988222599       0.173444718122 
      0.641943991184       0.749846935272       0.195375338197 
      0.173444718122       0.983097493649       0.173444718122 
      0.103144429624       0.995238780975       0.195375338197 
      0.571646332741       0.983097493649       0.571646332741 
      0.641943991184       0.995238780975       0.549714148045 
      0.483098864555       0.673444628716       0.173444718122 
      0.495239615440       0.695371508598       0.103144429624 
      0.483098864555       0.071642555296       0.571641087532 
      0.495239615440       0.049712561071       0.641943991184 
      0.261989593506       0.071642555296       0.173444718122 
      0.249849334359       0.049712561071       0.103144429624 
      0.261989593506       0.673444628716       0.571641087532 
      0.249849334359       0.695371508598       0.641943991184 
      0.423444956541       0.423443436623       0.011989723891 
      0.353144675493       0.445373952389      -0.000150825785 
      0.022183174267       0.222904413939       0.222905486822 
      0.821645021439       0.821643054485       0.011989723891 
      0.891942679882       0.799710869789      -0.000150825785 
      0.222905486822       0.022182069719       0.222905486822 
      0.423444956541       0.821643054485       0.233099147677 
      0.353144675493       0.799710869789       0.245239406824 
      0.022183174267       0.022182069719       0.022183174267 
      0.821645021439       0.423443436623       0.233099147677 
      0.891942679882       0.445373952389       0.245239406824 
      0.222905486822       0.222904413939       0.022183174267 
      0.733101189137       0.821643054485       0.923444926739 
      0.745237231255       0.891940534115       0.945377171040 
      0.733101189137       0.423443436623       0.321643471718 
      0.745237231255       0.353143304586       0.299713402987 
      0.511989831924       0.821643054485       0.321643471718 
      0.499849021435       0.891940534115       0.299713402987 
      0.511989831924       0.423443436623       0.923444926739 
      0.499849021435       0.353143304586       0.945377171040 
      0.821645021439       0.511988103390       0.321644008160 
      0.799712836742       0.499847799540       0.391944289207 
      0.423444956541       0.511988103390       0.923444926739 
      0.445375025272       0.499847799540       0.853141963482 
      0.423444956541       0.733099460602       0.321644008160 
      0.445375025272       0.745240688324       0.391944289207 
      0.821645021439       0.733099460602       0.923444926739 
      0.799712836742       0.745240688324       0.853141963482 
      0.673446238041       0.173443779349       0.483098864555 
      0.695373177528       0.103143654764       0.495239615440 
      0.071643777192       0.571644961834       0.483098864555 
      0.049713525921       0.641942441463       0.495239615440 
      0.071643777192       0.173443779349       0.261989593506 
      0.049713525921       0.103143654764       0.249848812819 
      0.673446238041       0.571644961834       0.261989593506 
      0.695373177528       0.641942441463       0.249848812819 
      0.071643777192       0.483098208904       0.571646332741 
      0.141944065690       0.495238423347       0.549714148045 
      0.673446238041       0.483098208904       0.173444718122 
      0.603143334389       0.495238423347       0.195375338197 
      0.071643777192       0.261988431215       0.173444718122 
      0.141944065690       0.249847680330       0.195375338197 
      0.673446238041       0.261988431215       0.571646332741 
      0.603143334389       0.249847680330       0.549714148045 
      0.761990070343       0.571644961834       0.173444718122 
      0.749848723412       0.549712836742       0.103144429624 
      0.761990070343       0.173443779349       0.571641087532 
      0.749848723412       0.195373818278       0.641943991184 
      0.983099877834       0.173443779349       0.173444718122 
      0.995241165161       0.195373818278       0.103144429624 
      0.983099877834       0.571644961834       0.571641087532 
      0.995241165161       0.549712836742       0.641943991184 
      0.923444926739       0.821643054485       0.733101189137 
      0.853141963482       0.799710869789       0.745237231255 
      0.321643471718       0.423443436623       0.733101189137 
      0.391944289207       0.445373952389       0.745237231255 
      0.923444926739       0.423443436623       0.511989831924 
      0.853141963482       0.445373952389       0.499849021435 
      0.321643471718       0.821643054485       0.511989831924 
      0.391944289207       0.799710869789       0.499849021435 
      0.233099147677       0.423443436623       0.821645021439 
      0.245239406824       0.353143304586       0.799712836742 
      0.233099147677       0.821643054485       0.423444956541 
      0.245239406824       0.891940534115       0.445375025272 
      0.011989723891       0.423443436623       0.423444956541 
     -0.000150988795       0.353143304586       0.445375025272 
      0.011989723891       0.821643054485       0.821645021439 
     -0.000150988795       0.891940534115       0.799712836742 
      0.321644008160       0.733099460602       0.423444956541 
      0.299713402987       0.745240688324       0.353144675493 
      0.923444926739       0.733099460602       0.821645021439 
      0.945377171040       0.745240688324       0.891942679882 
      0.923444926739       0.511988103390       0.423444956541 
      0.945377171040       0.499847799540       0.353144675493 
      0.321644008160       0.511988103390       0.821645021439 
      0.299713402987       0.499847799540       0.891942679882 
      0.423444956541       0.233098059893       0.821645021439 
      0.445375025272       0.245238289237       0.891942679882 
      0.821645021439       0.233098059893       0.423444956541 
      0.799712836742       0.245238289237       0.353144675493 
      0.821645021439       0.011988275684       0.821645021439 
      0.799712836742      -0.000152168912       0.891942679882 
      0.423444956541       0.011988275684       0.423444956541 
      0.445375025272      -0.000152168912       0.353144675493 
      0.821645021439       0.321642696857       0.511989831924 
      0.891942679882       0.299712687731       0.499849021435 
      0.423444956541       0.923442661762       0.511989831924 
      0.353144675493       0.945374846458       0.499849021435 
      0.821645021439       0.923442661762       0.733101189137 
      0.891942679882       0.945374846458       0.745237231255 
      0.423444956541       0.321642696857       0.733101189137 
      0.353144675493       0.299712687731       0.745237231255 
      0.511989831924       0.923442661762       0.423444956541 
      0.499849021435       0.853145122528       0.445375025272 
      0.511989831924       0.321642696857       0.821645021439 
      0.499849021435       0.391942828894       0.799712836742 
      0.733101189137       0.923442661762       0.821645021439 
      0.745237231255       0.853145122528       0.799712836742 
      0.733101189137       0.321642696857       0.423444956541 
      0.745237231255       0.391942828894       0.445375025272 
      0.141944065690       0.695371508598       0.749848723412 
      0.603143334389       0.049712561071       0.749848723412 
      0.141944065690       0.049712561071       0.995241165161 
      0.603143334389       0.695371508598       0.995241165161 
      0.749848723412       0.141942679882       0.695373177528 
      0.749848723412       0.603141844273       0.049713525921 
      0.995241165161       0.141942679882       0.049713525921 
      0.995241165161       0.603141844273       0.695373177528 
      0.695373177528       0.749846935272       0.141944065690 
      0.049713578075       0.749846935272       0.603143334389 
      0.049713578075       0.995238780975       0.141944065690 
      0.695373177528       0.995238780975       0.603143334389 
      0.299713402987       0.853145122528       0.245239406824 
      0.945377171040       0.391942828894       0.245239406824 
      0.945377171040       0.853145122528      -0.000150980923 
      0.299713402987       0.391942828894      -0.000150980923 
      0.853141963482       0.245238289237       0.299713402987 
      0.391944289207       0.245238289237       0.945377171040 
      0.853141963482      -0.000152167864       0.945377171040 
      0.391944289207      -0.000152167864       0.299713402987 
      0.245239406824       0.299712687731       0.853141963482 
      0.245239406824       0.945374846458       0.391944289207 
     -0.000150834734       0.945374846458       0.853141963482 
     -0.000150834734       0.299712687731       0.391944289207 
      0.445375025272       0.891940534115       0.245239406824 
      0.799712836742       0.353143304586       0.245239406824 
      0.799712836742       0.891940534115      -0.000150980923 
      0.445375025272       0.353143304586      -0.000150980923 
      0.891942679882       0.499847799540       0.299713402987 
      0.353144675493       0.499847799540       0.945377171040 
      0.891942679882       0.745240688324       0.945377171040 
      0.353144675493       0.745240688324       0.299713402987 
      0.499849021435       0.445373952389       0.853141963482 
      0.499849021435       0.799710869789       0.391944289207 
      0.745237231255       0.799710869789       0.853141963482 
      0.745237231255       0.445373952389       0.391944289207 
      0.445375025272       0.853145122528       0.499849021435 
      0.799712836742       0.391942828894       0.499849021435 
      0.799712836742       0.853145122528       0.745237231255 
      0.445375025272       0.391942828894       0.745237231255 
      0.891942679882       0.245238289237       0.445375025272 
      0.353144675493       0.245238289237       0.799712836742 
      0.891942679882      -0.000152167864       0.799712836742 
      0.353144675493      -0.000152167864       0.445375025272 
      0.499849021435       0.299712687731       0.891942679882 
      0.499849021435       0.945374846458       0.353144675493 
      0.745237231255       0.945374846458       0.891942679882 
      0.745237231255       0.299712687731       0.353144675493 
      0.641943991184       0.549712836742       0.995241165161 
      0.103144429624       0.195373818278       0.995241165161 
      0.641943991184       0.195373818278       0.749848723412 
      0.103144429624       0.549712836742       0.749848723412 
      0.249848812819       0.103143654764       0.049713525921 
      0.249848812819       0.641942441463       0.695373177528 
      0.495239615440       0.103143654764       0.695373177528 
      0.495239615440       0.641942441463       0.049713525921 
      0.195375338197       0.495238423347       0.603143334389 
      0.549714148045       0.495238423347       0.141944065690 
      0.549714148045       0.249847680330       0.603143334389 
      0.195375338197       0.249847680330       0.141944065690 
      0.299713402987       0.891940534115       0.499849021435 
      0.945377171040       0.353143304586       0.499849021435 
      0.945377171040       0.891940534115       0.745237231255 
      0.299713402987       0.353143304586       0.745237231255 
      0.853141963482       0.499847799540       0.445375025272 
      0.391944289207       0.499847799540       0.799712836742 
      0.853141963482       0.745240688324       0.799712836742 
      0.391944289207       0.745240688324       0.445375025272 
      0.245239406824       0.445373952389       0.891942679882 
      0.245239406824       0.799710869789       0.353144675493 
     -0.000150834734       0.799710869789       0.891942679882 
     -0.000150834734       0.445373952389       0.353144675493 
      0.141944065690       0.195373818278       0.249849334359 
      0.603143334389       0.549712836742       0.249849334359 
      0.141944065690       0.549712836742       0.495239615440 
      0.603143334389       0.195373818278       0.495239615440 
      0.749848723412       0.641942441463       0.195375338197 
      0.749848723412       0.103143654764       0.549714148045 
      0.995241165161       0.641942441463       0.549714148045 
      0.995241165161       0.103143654764       0.195375338197 
      0.695373177528       0.249847680330       0.641943991184 
      0.049713578075       0.249847680330       0.103144429624 
      0.049713578075       0.495238423347       0.641943991184 
      0.695373177528       0.495238423347       0.103144429624 
      0.549714148045       0.749846935272       0.103144429624 
      0.195375338197       0.749846935272       0.641943991184 
      0.195375338197       0.995238780975       0.103144429624 
      0.549714148045       0.995238780975       0.641943991184 
      0.103144429624       0.695371508598       0.495239615440 
      0.641943991184       0.049712561071       0.495239615440 
      0.103144429624       0.049712561071       0.249849334359 
      0.641943991184       0.695371508598       0.249849334359 
      0.495239615440       0.141942679882       0.549714148045 
      0.495239615440       0.603141844273       0.195375338197 
      0.249848812819       0.141942679882       0.195375338197 
      0.249848812819       0.603141844273       0.549714148045 
