1   
      1.000000000000
     13.847096443176        0.000000000000        0.000000000000
     -6.923548221588       11.991937637329        0.000000000000
      0.000000000000        0.000000000000       22.651033401489
C
160 
Direct
     -0.221990227699       0.383428424597       0.466420233250 
     -0.021241275594       0.882078886032       0.399299651384 
     -0.021242793649       0.633159935474       0.265715926886 
     -0.122970186174       0.393339276314       0.484110355377 
      0.069739244878       0.888358712196       0.380117326975 
     -0.106067001820       0.527637839317       0.297657936811 
     -0.074287772179       0.495846867561       0.524404346943 
      0.031799953431       0.435797661543       0.433525025845 
      0.123190447688       0.741516113281       0.327160358429 
      0.679504930973       0.838232755661       0.966423869133 
      0.478755980730       0.339583843946       0.899301111698 
      0.478757381439       0.588501214981       0.765717804432 
      0.580484867096       0.828321933746      -0.015889959410 
      0.387775868177       0.333301842213       0.880118787289 
      0.563581705093       0.694022536278       0.797658979893 
      0.531802475452       0.725814282894       0.024405596778 
      0.425714522600       0.785863399506       0.933524727821 
      0.334324240685       0.480145096779       0.827158749104 
      0.179503336549       0.615227580070       0.466420233250 
     -0.207930952311       0.400918483734       0.399299651384 
      0.165436834097       0.729755282402       0.484110355377 
     -0.218736842275       0.508783102036       0.380117326975 
      0.063580401242       0.625582993031       0.297657936811 
      0.085295140743       0.694967389107       0.524404346943 
      0.123225837946       0.883604526520       0.433525025845 
     -0.112185247242       0.712602972984       0.327160358429 
      0.278011351824       0.606433689594       0.966419458389 
      0.665445625782       0.820742726326       0.899301111698 
      0.292077809572       0.491905927658      -0.015890046954 
      0.676251471043       0.712878108025       0.880118787289 
      0.393934577703       0.596078395844       0.797658979893 
      0.372219562531       0.526693046093       0.024405553937 
      0.334288865328       0.338056743145       0.933524727821 
      0.569699943066       0.509058237076       0.827158749104 
     -0.021241132170       0.900824904442       0.466420233250 
      0.165444076061       0.616483330727       0.399299651384 
     -0.106194823980       0.776384532452       0.484110355377 
      0.085269860923       0.502337515354       0.380117326975 
     -0.021242143586       0.746258020401       0.297657936811 
     -0.074735522270       0.708664000034       0.524404346943 
     -0.218753442168       0.580077290535       0.433525025845 
     -0.074733354151       0.445360064507       0.327160358429 
      0.478755980730       0.320838242769       0.966423869133 
      0.292070627213       0.605177879333       0.899301111698 
      0.563709497452       0.445277482271      -0.015889870003 
      0.372245550156       0.719324111938       0.880118787289 
      0.478756666183       0.475403159857       0.797658979893 
      0.532250225544       0.512997150421       0.024405641481 
      0.676268160343       0.641584038734       0.933524727821 
      0.532248020172       0.776301145554       0.827158749104 
      0.278009921312       0.606429517269       0.491094589233 
      0.478758841753       0.339585512877       0.558212935925 
      0.478757381439       0.588501214981       0.691800653934 
      0.377029925585       0.710857152939       0.473404437304 
      0.569738924503       0.438358277082       0.577399730682 
      0.393933147192       0.596075892448       0.659855067730 
      0.425712347031       0.664563119411       0.433109164238 
      0.531800329685       0.847112059593       0.523989379406 
      0.623190581799       0.646922171116       0.630355358124 
      0.179504781961       0.615231692791      -0.008906967007 
     -0.021243948489       0.882077336311       0.058215003461 
     -0.021242432296       0.633160173893       0.191798746586 
      0.080484747887       0.510804057121       0.973403692245 
     -0.112224251032       0.783302068710       0.077397793531 
      0.063581414521       0.625584423542       0.159856721759 
      0.031802553684       0.557098150253       0.933109760284 
     -0.074284888804       0.374549537897       0.023989899084 
     -0.165675178170       0.574739515781       0.130354762077 
      0.679503500462       0.838235259056       0.491094589233 
      0.292069166899       0.605173707008       0.558212935925 
      0.665436983109       0.707464933395       0.473404437304 
      0.281263291836       0.484831571579       0.577399730682 
      0.563580214977       0.694023370743       0.659855067730 
      0.585295259953       0.649712324142       0.433109164238 
      0.623225986958       0.504874706268       0.523989379406 
      0.387814879417       0.404046893120       0.630355358124 
     -0.221988782287       0.383425980806      -0.008906790055 
      0.165445521474       0.616487503052       0.058215003461 
     -0.207922294736       0.514196276665       0.973403692245 
      0.176252111793       0.736830055714       0.077397346497 
     -0.106065563858       0.527637839317       0.159856721759 
     -0.127780571580       0.571948051453       0.933109760284 
     -0.165710553527       0.716787040234       0.023989854380 
      0.069700174034       0.817614555359       0.130354315042 
      0.478758841753       0.320839911699       0.491094589233 
      0.665444195271       0.820745170116       0.558217346668 
      0.393805325031       0.347183287144       0.473404437304 
      0.585269272327       0.842313468456       0.577399730682 
      0.478758126497       0.475404024124       0.659855067730 
      0.425264596939       0.451229006052       0.433109164238 
      0.281246691942       0.413518249989       0.523989379406 
      0.425266772509       0.714535474777       0.630355358124 
     -0.021244093776       0.900823235512      -0.008906922303 
     -0.207929506898       0.400915980339       0.058215446770 
      0.063709460199       0.874478816986       0.973403692245 
     -0.127754583955       0.379347801208       0.077397793531 
     -0.021243082359       0.746257424355       0.159856721759 
      0.032250154763       0.770432233810       0.933109760284 
      0.176268726587       0.808143436909       0.023989766836 
      0.032248061150       0.507125794888       0.130354762077 
      0.580482721329       0.828322350979       0.473404437304 
      0.387777298689       0.333301842213       0.577399730682 
      0.531801760197       0.725814700127       0.433109164238 
      0.425712347031       0.785861313343       0.523989379406 
      0.334324240685       0.480142593384       0.630355358124 
     -0.122968018055       0.393338859081       0.973403692245 
      0.069737218320       0.888357579708       0.077397346497 
     -0.074286334217       0.495846927166       0.933109760284 
      0.031802695245       0.435800075531       0.023989899084 
      0.123190447688       0.741518557072       0.130354315042 
      0.292077809572       0.491902589798       0.473404437304 
      0.676251471043       0.712881445885       0.577399730682 
      0.372219562531       0.526692211628       0.433109164238 
      0.334291040897       0.338055461645       0.523989379406 
      0.569701373577       0.509059906006       0.630355358124 
      0.165436834097       0.729758679867       0.973403692245 
     -0.218736842275       0.508779764175       0.077397793531 
      0.085295140743       0.694969058037       0.933109760284 
      0.123223669827       0.883604884148       0.023989766836 
     -0.112186692655       0.712600469589       0.130354315042 
      0.563711702824       0.445279598236       0.473404437304 
      0.372242659330       0.719320774078       0.577399730682 
      0.532251656055       0.512997984886       0.433109164238 
      0.676268815994       0.641586899757       0.523989379406 
      0.532245874405       0.776300787926       0.630355358124 
     -0.106196992099       0.776383280754       0.973403692245 
      0.085272029042       0.502340435982       0.077397793531 
     -0.074736975133       0.708662390709       0.933109760284 
     -0.218754157424       0.580073535442       0.023989899084 
     -0.074731186032       0.445360481739       0.130354762077 
      0.080482572317       0.510801136494       0.484110355377 
     -0.112222075462       0.783303320408       0.380117326975 
      0.031801469624       0.557096779346       0.524404346943 
     -0.074287772179       0.374548703432       0.433525025845 
     -0.165675893426       0.574741542339       0.327160358429 
      0.377032101154       0.710860133171      -0.015890004113 
      0.569737493992       0.438356608152       0.880118787289 
      0.425713062286       0.664564371109       0.024405553937 
      0.531802475452       0.847112476826       0.933524727821 
      0.623190581799       0.646919667721       0.827158749104 
     -0.207922294736       0.514199674129       0.484110355377 
      0.176251396537       0.736826300621       0.380117326975 
     -0.127780571580       0.571949720383       0.524404346943 
     -0.165709108114       0.716789484024       0.433525025845 
      0.069701328874       0.817613542080       0.327160358429 
      0.665436983109       0.707461595535      -0.015889870003 
      0.281263291836       0.484834909439       0.880118787289 
      0.585295259953       0.649711489677       0.024405641481 
      0.623223781586       0.504870831966       0.933524727821 
      0.387813419104       0.404046893120       0.827158749104 
      0.063711695373       0.874480128288       0.484110355377 
     -0.127757474780       0.379347801208       0.380117326975 
      0.032251454890       0.770432174206       0.524404346943 
      0.176268726587       0.808140099049       0.433525025845 
      0.032245893031       0.507123708725       0.327160358429 
      0.393803149462       0.347182869911      -0.015889914706 
      0.585272133350       0.842313408852       0.880118787289 
      0.425263166428       0.451228141785       0.024405596778 
      0.281245946884       0.413520336151       0.933524727821 
      0.425268948078       0.714537620544       0.827158749104 
