# File generated with Atomsk by geedai on 2025-05-21 15:49:17
1.000000
     19.01800000        0.00000000        0.00000000
      0.00000000       19.01800000        0.00000000
      0.00000000        0.00000000       19.01800000
 C  H
   320       1
Cartesian
     17.56200000        6.11700000        4.43300000
     16.22500000        5.70000000        4.66400000
      9.93100000        9.93100000        0.42200000
      6.11700000       17.56200000        4.43300000
      7.45400000       17.97900000        4.66400000
     13.74800000       13.74800000        0.42200000
     17.56200000       17.56200000        0.22800000
     16.22500000       17.97900000       -0.00300000
      9.93100000       13.74800000        4.23900000
      6.11700000        6.11700000        0.22800000
      7.45400000        5.70000000       -0.00300000
     13.74800000        9.93100000        4.23900000
      4.43300000       17.56200000        6.11700000
      4.66400000       16.22500000        5.70000000
      0.42200000        9.93100000        9.93100000
      4.43300000        6.11700000       17.56200000
      4.66400000        7.45400000       17.97900000
      0.42200000       13.74800000       13.74800000
      0.22800000       17.56200000       17.56200000
     -0.00300000       16.22500000       17.97900000
      4.23900000        9.93100000       13.74800000
      0.22800000        6.11700000        6.11700000
     -0.00300000        7.45400000        5.70000000
      4.23900000       13.74800000        9.93100000
      6.11700000        4.43300000       17.56200000
      5.70000000        4.66400000       16.22500000
      9.93100000        0.42200000        9.93100000
     17.56200000        4.43300000        6.11700000
     17.97900000        4.66400000        7.45400000
     13.74800000        0.42200000       13.74800000
     17.56200000        0.22800000       17.56200000
     17.97900000       -0.00300000       16.22500000
     13.74800000        4.23900000        9.93100000
      6.11700000        0.22800000        6.11700000
      5.70000000       -0.00300000        7.45400000
      9.93100000        4.23900000       13.74800000
     12.80700000        1.36200000       14.49100000
     13.22400000        2.69900000       14.26000000
      8.99400000        8.99400000       18.50200000
      1.36300000       12.80700000       14.49100000
      0.94500000       11.47000000       14.26000000
      5.17600000        5.17600000       18.50200000
      1.36300000        1.36200000       18.69600000
      0.94500000        2.69900000       18.92700000
      5.17600000        8.99400000       14.68500000
     12.80700000       12.80700000       18.69600000
     13.22400000       11.47000000       18.92700000
      8.99400000        5.17600000       14.68500000
      1.36300000       14.49100000       12.80700000
      2.69900000       14.26000000       13.22400000
      8.99400000       18.50200000        8.99400000
     12.80700000       14.49100000        1.36300000
     11.47000000       14.26000000        0.94500000
      5.17600000       18.50200000        5.17600000
      1.36300000       18.69600000        1.36300000
      2.69900000       18.92700000        0.94500000
      8.99400000       14.68500000        5.17600000
     12.80700000       18.69600000       12.80700000
     11.47000000       18.92700000       13.22400000
      5.17600000       14.68500000        8.99400000
     14.49100000       12.80700000        1.36300000
     14.26000000       13.22400000        2.69900000
     18.50200000        8.99400000        8.99400000
     14.49100000        1.36200000       12.80700000
     14.26000000        0.94500000       11.47000000
     18.50200000        5.17600000        5.17600000
     18.69600000        1.36200000        1.36300000
     18.92700000        0.94500000        2.69900000
     14.68500000        5.17600000        8.99400000
     18.69600000       12.80700000       12.80700000
     18.92700000       13.22400000       11.47000000
     14.68500000        8.99400000        5.17600000
     10.87100000        3.29900000       14.49100000
     10.45400000        1.96200000       14.26000000
     14.68500000       14.68500000       18.50200000
      3.29900000       10.87100000       14.49100000
      3.71600000       12.20800000       14.26000000
     18.50200000       18.50200000       18.50200000
      3.29900000        3.29900000       18.69600000
      3.71600000        1.96200000       18.92700000
     18.50200000       14.68500000       14.68500000
     10.87100000       10.87100000       18.69600000
     10.45400000       12.20800000       18.92700000
     14.68500000       18.50200000       14.68500000
      3.29900000        9.18700000       12.80700000
      1.96200000        9.41800000       13.22400000
     10.87100000        9.18700000        1.36300000
     12.20800000        9.41800000        0.94500000
      3.29900000        4.98200000        1.36300000
      1.96200000        4.75200000        0.94500000
     10.87100000        4.98200000       12.80700000
     12.20800000        4.75200000       13.22400000
      9.18700000       10.87100000        1.36300000
      9.41800000       10.45400000        2.69900000
      9.18700000        3.29900000       12.80700000
      9.41800000        3.71600000       11.47000000
      4.98200000        3.29900000        1.36300000
      4.75200000        3.71600000        2.69900000
      4.98200000       10.87100000       12.80700000
      4.75200000       10.45400000       11.47000000
     10.87100000        1.36200000        9.18700000
     10.45400000        2.69900000        9.41800000
      3.29900000       12.80700000        9.18700000
      3.71600000       11.47000000        9.41800000
      3.29900000        1.36200000        4.98200000
      3.71600000        2.69900000        4.75200000
     10.87100000       12.80700000        4.98200000
     10.45400000       11.47000000        4.75200000
      3.29900000       14.49100000       10.87100000
      1.96200000       14.26000000       10.45400000
     10.87100000       14.49100000        3.29900000
     12.20800000       14.26000000        3.71600000
      3.29900000       18.69600000        3.29900000
      1.96200000       18.92700000        3.71600000
     10.87100000       18.69600000       10.87100000
     12.20800000       18.92700000       10.45400000
      9.18700000       12.80700000        3.29900000
      9.41800000       13.22400000        1.96200000
      9.18700000        1.36200000       10.87100000
      9.41800000        0.94500000       12.20800000
      4.98200000        1.36200000        3.29900000
      4.75200000        0.94500000        1.96200000
      4.98200000       12.80700000       10.87100000
      4.75200000       13.22400000       12.20800000
      8.05300000        8.05300000        0.22800000
      6.71600000        8.47000000       -0.00300000
      0.42200000        4.23900000        4.23900000
     15.62600000       15.62600000        0.22800000
     16.96300000       15.20900000       -0.00300000
      4.23900000        0.42200000        4.23900000
      8.05300000       15.62600000        4.43300000
      6.71600000       15.20900000        4.66400000
      0.42200000        0.42200000        0.42200000
     15.62600000        8.05300000        4.43300000
     16.96300000        8.47000000        4.66400000
      4.23900000        4.23900000        0.42200000
     13.94200000       15.62600000       17.56200000
     14.17300000       16.96300000       17.97900000
     13.94200000        8.05300000        6.11700000
     14.17300000        6.71600000        5.70000000
      9.73700000       15.62600000        6.11700000
      9.50600000       16.96300000        5.70000000
      9.73700000        8.05300000       17.56200000
      9.50600000        6.71600000       17.97900000
     15.62600000        9.73700000        6.11700000
     15.20900000        9.50600000        7.45400000
      8.05300000        9.73700000       17.56200000
      8.47000000        9.50600000       16.22500000
      8.05300000       13.94200000        6.11700000
      8.47000000       14.17300000        7.45400000
     15.62600000       13.94200000       17.56200000
     15.20900000       14.17300000       16.22500000
     12.80700000        3.29900000        9.18700000
     13.22400000        1.96200000        9.41800000
      1.36300000       10.87100000        9.18700000
      0.94500000       12.20800000        9.41800000
      1.36300000        3.29900000        4.98200000
      0.94500000        1.96200000        4.75200000
     12.80700000       10.87100000        4.98200000
     13.22400000       12.20800000        4.75200000
      1.36300000        9.18700000       10.87100000
      2.69900000        9.41800000       10.45400000
     12.80700000        9.18700000        3.29900000
     11.47000000        9.41800000        3.71600000
      1.36300000        4.98200000        3.29900000
      2.69900000        4.75200000        3.71600000
     12.80700000        4.98200000       10.87100000
     11.47000000        4.75200000       10.45400000
     14.49100000       10.87100000        3.29900000
     14.26000000       10.45400000        1.96200000
     14.49100000        3.29900000       10.87100000
     14.26000000        3.71600000       12.20800000
     18.69600000        3.29900000        3.29900000
     18.92700000        3.71600000        1.96200000
     18.69600000       10.87100000       10.87100000
     18.92700000       10.45400000       12.20800000
     17.56200000       15.62600000       13.94200000
     16.22500000       15.20900000       14.17300000
      6.11700000        8.05300000       13.94200000
      7.45400000        8.47000000       14.17300000
     17.56200000        8.05300000        9.73700000
     16.22500000        8.47000000        9.50600000
      6.11700000       15.62600000        9.73700000
      7.45400000       15.20900000        9.50600000
      4.43300000        8.05300000       15.62600000
      4.66400000        6.71600000       15.20900000
      4.43300000       15.62600000        8.05300000
      4.66400000       16.96300000        8.47000000
      0.22800000        8.05300000        8.05300000
     -0.00300000        6.71600000        8.47000000
      0.22800000       15.62600000       15.62600000
     -0.00300000       16.96300000       15.20900000
      6.11700000       13.94200000        8.05300000
      5.70000000       14.17300000        6.71600000
     17.56200000       13.94200000       15.62600000
     17.97900000       14.17300000       16.96300000
     17.56200000        9.73700000        8.05300000
     17.97900000        9.50600000        6.71600000
      6.11700000        9.73700000       15.62600000
      5.70000000        9.50600000       16.96300000
      8.05300000        4.43300000       15.62600000
      8.47000000        4.66400000       16.96300000
     15.62600000        4.43300000        8.05300000
     15.20900000        4.66400000        6.71600000
     15.62600000        0.22800000       15.62600000
     15.20900000       -0.00300000       16.96300000
      8.05300000        0.22800000        8.05300000
      8.47000000       -0.00300000        6.71600000
     15.62600000        6.11700000        9.73700000
     16.96300000        5.70000000        9.50600000
      8.05300000       17.56200000        9.73700000
      6.71600000       17.97900000        9.50600000
     15.62600000       17.56200000       13.94200000
     16.96300000       17.97900000       14.17300000
      8.05300000        6.11700000       13.94200000
      6.71600000        5.70000000       14.17300000
      9.73700000       17.56200000        8.05300000
      9.50600000       16.22500000        8.47000000
      9.73700000        6.11700000       15.62600000
      9.50600000        7.45400000       15.20900000
     13.94200000       17.56200000       15.62600000
     14.17300000       16.22500000       15.20900000
     13.94200000        6.11700000        8.05300000
     14.17300000        7.45400000        8.47000000
      2.69900000       13.22400000       14.26000000
     11.47000000        0.94500000       14.26000000
      2.69900000        0.94500000       18.92700000
     11.47000000       13.22400000       18.92700000
     14.26000000        2.69900000       13.22400000
     14.26000000       11.47000000        0.94500000
     18.92700000        2.69900000        0.94500000
     18.92700000       11.47000000       13.22400000
     13.22400000       14.26000000        2.69900000
      0.94500000       14.26000000       11.47000000
      0.94500000       18.92700000        2.69900000
     13.22400000       18.92700000       11.47000000
      5.70000000       16.22500000        4.66400000
     17.97900000        7.45400000        4.66400000
     17.97900000       16.22500000       -0.00300000
      5.70000000        7.45400000       -0.00300000
     16.22500000        4.66400000        5.70000000
      7.45400000        4.66400000       17.97900000
     16.22500000       -0.00300000       17.97900000
      7.45400000       -0.00300000        5.70000000
      4.66400000        5.70000000       16.22500000
      4.66400000       17.97900000        7.45400000
     -0.00300000       17.97900000       16.22500000
     -0.00300000        5.70000000        7.45400000
      8.47000000       16.96300000        4.66400000
     15.20900000        6.71600000        4.66400000
     15.20900000       16.96300000       -0.00300000
      8.47000000        6.71600000       -0.00300000
     16.96300000        9.50600000        5.70000000
      6.71600000        9.50600000       17.97900000
     16.96300000       14.17300000       17.97900000
      6.71600000       14.17300000        5.70000000
      9.50600000        8.47000000       16.22500000
      9.50600000       15.20900000        7.45400000
     14.17300000       15.20900000       16.22500000
     14.17300000        8.47000000        7.45400000
      8.47000000       16.22500000        9.50600000
     15.20900000        7.45400000        9.50600000
     15.20900000       16.22500000       14.17300000
      8.47000000        7.45400000       14.17300000
     16.96300000        4.66400000        8.47000000
      6.71600000        4.66400000       15.20900000
     16.96300000       -0.00300000       15.20900000
      6.71600000       -0.00300000        8.47000000
      9.50600000        5.70000000       16.96300000
      9.50600000       17.97900000        6.71600000
     14.17300000       17.97900000       16.96300000
     14.17300000        5.70000000        6.71600000
     12.20800000       10.45400000       18.92700000
      1.96200000        3.71600000       18.92700000
     12.20800000        3.71600000       14.26000000
      1.96200000       10.45400000       14.26000000
      4.75200000        1.96200000        0.94500000
      4.75200000       12.20800000       13.22400000
      9.41800000        1.96200000       13.22400000
      9.41800000       12.20800000        0.94500000
      3.71600000        9.41800000       11.47000000
     10.45400000        9.41800000        2.69900000
     10.45400000        4.75200000       11.47000000
      3.71600000        4.75200000        2.69900000
      5.70000000       16.96300000        9.50600000
     17.97900000        6.71600000        9.50600000
     17.97900000       16.96300000       14.17300000
      5.70000000        6.71600000       14.17300000
     16.22500000        9.50600000        8.47000000
      7.45400000        9.50600000       15.20900000
     16.22500000       14.17300000       15.20900000
      7.45400000       14.17300000        8.47000000
      4.66400000        8.47000000       16.96300000
      4.66400000       15.20900000        6.71600000
     -0.00300000       15.20900000       16.96300000
     -0.00300000        8.47000000        6.71600000
      2.69900000        3.71600000        4.75200000
     11.47000000       10.45400000        4.75200000
      2.69900000       10.45400000        9.41800000
     11.47000000        3.71600000        9.41800000
     14.26000000       12.20800000        3.71600000
     14.26000000        1.96200000       10.45400000
     18.92700000       12.20800000       10.45400000
     18.92700000        1.96200000        3.71600000
     13.22400000        4.75200000       12.20800000
      0.94500000        4.75200000        1.96200000
      0.94500000        9.41800000       12.20800000
     13.22400000        9.41800000        1.96200000
     10.45400000       14.26000000        1.96200000
      3.71600000       14.26000000       12.20800000
      3.71600000       18.92700000        1.96200000
     10.45400000       18.92700000       12.20800000
      1.96200000       13.22400000        9.41800000
     12.20800000        0.94500000        9.41800000
      1.96200000        0.94500000        4.75200000
     12.20800000       13.22400000        4.75200000
      9.41800000        2.69900000       10.45400000
      9.41800000       11.47000000        3.71600000
      4.75200000        2.69900000        3.71600000
      4.75200000       11.47000000       10.45400000
      8.83900000        9.93000000        0.32100000
