C  O 
 1.0000000000000000
     9.8979999999999997    0.0000000000000000    0.0000000000000000
     0.0000000000000000    9.8979999999999997    0.0000000000000000
     0.0000000000000000    0.0000000000000000    9.8979999999999997
 C   O  
  40   1
Cartesian
  1.0910000000000000  1.0910000000000000  1.0910000000000000
  0.2000000000000000  0.2000000000000000  0.2000000000000000
  1.9820000000000000  1.9820000000000000  0.2000000000000000
  0.2000000000000000  1.9820000000000000  1.9820000000000000
  1.9820000000000000  0.2000000000000000  1.9820000000000000
  8.5150000000000006  8.5150000000000006  8.5150000000000006
  9.4049999999999994  9.4049999999999994  9.4049999999999994
  7.6239999999999997  7.6239999999999997  9.4060000000000006
  7.6239999999999997  9.4060000000000006  7.6239999999999997
  9.4060000000000006  7.6239999999999997  7.6239999999999997
  3.5659999999999998  3.5659999999999998  8.5150000000000006
  2.6749999999999998  2.6749999999999998  9.4060000000000006
  4.4560000000000004  4.4560000000000004  9.4049999999999994
  4.4569999999999999  2.6749999999999998  7.6239999999999997
  2.6749999999999998  4.4569999999999999  7.6239999999999997
  3.5659999999999998  8.5150000000000006  3.5659999999999998
  2.6749999999999998  9.4060000000000006  2.6749999999999998
  4.4569999999999999  7.6239999999999997  2.6749999999999998
  4.4560000000000004  9.4049999999999994  4.4560000000000004
  2.6749999999999998  7.6239999999999997  4.4569999999999999
  6.0400000000000000  6.0400000000000000  1.0910000000000000
  5.1490000000000000  6.9310000000000000  1.9820000000000000
  6.9310000000000000  5.1490000000000000  1.9820000000000000
  5.1490000000000000  5.1490000000000000  0.2000000000000000
  6.9310000000000000  6.9310000000000000  0.2000000000000000
  8.5150000000000006  3.5659999999999998  3.5659999999999998
  9.4060000000000006  2.6749999999999998  2.6749999999999998
  7.6239999999999997  4.4569999999999999  2.6749999999999998
  7.6239999999999997  2.6749999999999998  4.4569999999999999
  9.4049999999999994  4.4560000000000004  4.4560000000000004
  1.0910000000000000  6.0400000000000000  6.0400000000000000
  0.2000000000000000  5.1490000000000000  5.1490000000000000
  1.9820000000000000  6.9310000000000000  5.1490000000000000
  0.2000000000000000  6.9310000000000000  6.9310000000000000
  1.9820000000000000  5.1490000000000000  6.9310000000000000
  6.0400000000000000  1.0910000000000000  6.0400000000000000
  6.9310000000000000  0.2000000000000000  6.9310000000000000
  5.1490000000000000  0.2000000000000000  5.1490000000000000
  5.1490000000000000  1.9820000000000000  6.9310000000000000
  6.9310000000000000  1.9820000000000000  5.1490000000000000
  1.9471362279770696  1.9513251491869630  1.9425749665996155
