# File generated with Atomsk by geedai on 2025-05-21 15:36:34
1.000000
     18.76200000        0.00000000        0.00000000
      0.00000000       18.76200000        0.00000000
      0.00000000        0.00000000       18.76100000
 C  O
   128       1
Cartesian
      3.12000000        3.11900000        3.12100000
     14.97600000       14.97600000       14.97500000
     14.97600000       14.97600000        3.12000000
      3.12000000        3.12000000       14.97600000
     14.97600000        3.11900000       14.97500000
      3.12000000       14.97600000        3.12000000
      3.12000000       14.97600000       14.97600000
     14.97600000        3.12000000        3.12000000
     12.50100000       12.50100000       12.50100000
      5.59500000        5.59600000        5.59500000
      5.59500000        5.59500000       12.50000000
     12.50100000       12.50100000        5.59500000
      5.59500000       12.50100000        5.59600000
     12.50100000        5.59600000       12.50100000
     12.50100000        5.59500000        5.59500000
      5.59500000       12.50100000       12.50000000
      4.01100000        4.01100000        4.01200000
     14.08400000       14.08500000       14.08400000
     14.08500000       14.08500000        4.01100000
      4.01100000        4.01100000       14.08400000
     14.08500000        4.01100000       14.08400000
      4.01100000       14.08500000        4.01100000
      4.01100000       14.08500000       14.08400000
     14.08400000        4.01100000        4.01100000
     13.39100000       13.39300000       13.39200000
      4.70400000        4.70400000        4.70400000
      4.70400000        4.70400000       13.39200000
     13.39200000       13.39200000        4.70400000
      4.70400000       13.39200000        4.70500000
     13.39200000        4.70300000       13.39200000
     13.39200000        4.70400000        4.70400000
      4.70400000       13.39200000       13.39100000
      0.41400000        3.45600000        3.45600000
     17.68200000       14.64000000       14.63900000
     17.68200000       14.64000000        3.45700000
      0.41400000        3.45600000       14.63900000
     17.68200000        3.45600000       14.63900000
      0.41400000       14.64000000        3.45700000
      0.41400000       14.64000000       14.63900000
     17.68200000        3.45600000        3.45600000
      3.45600000        0.41300000        3.45600000
     14.64000000       17.68200000       14.63900000
      3.45600000       17.68200000       14.63900000
     14.64000000        0.41400000        3.45700000
     14.64000000       17.68200000        3.45700000
      3.45600000        0.41400000       14.63900000
     14.64000000        0.41300000       14.63900000
      3.45600000       17.68200000        3.45600000
      3.45600000        3.45600000        0.41400000
     14.64000000       14.64000000       17.68200000
     14.64000000        3.45600000       17.68200000
      3.45600000       14.64000000        0.41400000
      3.45600000       14.64000000       17.68200000
     14.64000000        3.45600000        0.41400000
     14.64000000       14.64000000        0.41400000
      3.45600000        3.45600000       17.68200000
      9.79500000       12.83700000       12.83700000
      8.30100000        5.25900000        5.25900000
      8.30100000        5.25900000       12.83700000
      9.79400000       12.83700000        5.25900000
      8.30100000       12.83700000        5.25900000
      9.79400000        5.25900000       12.83700000
      9.79500000        5.25900000        5.25900000
      8.30200000       12.83700000       12.83700000
     12.83700000        9.79400000       12.83700000
      5.25900000        8.30100000        5.25900000
     12.83700000        8.30100000        5.25900000
      5.25900000        9.79500000       12.83700000
      5.25900000        8.30100000       12.83700000
     12.83700000        9.79400000        5.25900000
      5.25900000        9.79400000        5.25900000
     12.83700000        8.30100000       12.83700000
     12.83700000       12.83700000        9.79400000
      5.25900000        5.25900000        8.30100000
      5.25900000       12.83700000        8.30100000
     12.83700000        5.25900000        9.79500000
     12.83700000        5.25900000        8.30100000
      5.25900000       12.83700000        9.79400000
      5.25900000        5.25900000        9.79400000
     12.83700000       12.83700000        8.30100000
      1.61200000        3.35400000        3.35400000
     16.48300000       14.74200000       14.74100000
     16.48400000       14.74200000        3.35400000
      1.61200000        3.35400000       14.74200000
     16.48300000        3.35400000       14.74100000
      1.61200000       14.74200000        3.35400000
      1.61200000       14.74200000       14.74100000
     16.48300000        3.35400000        3.35400000
      3.35300000        1.61200000        3.35400000
     14.74200000       16.48300000       14.74100000
      3.35400000       16.48300000       14.74100000
     14.74200000        1.61200000        3.35400000
     14.74200000       16.48300000        3.35400000
      3.35400000        1.61200000       14.74200000
     14.74200000        1.61200000       14.74100000
      3.35400000       16.48300000        3.35400000
      3.35400000        3.35400000        1.61300000
     14.74200000       14.74200000       16.48300000
     14.74200000        3.35400000       16.48300000
      3.35400000       14.74200000        1.61200000
      3.35300000       14.74200000       16.48300000
     14.74200000        3.35400000        1.61200000
     14.74200000       14.74200000        1.61300000
      3.35400000        3.35400000       16.48300000
     10.99300000       12.73400000       12.73400000
      7.10300000        5.36100000        5.36100000
      7.10300000        5.36100000       12.73500000
     10.99300000       12.73500000        5.36100000
      7.10300000       12.73500000        5.36100000
     10.99300000        5.36100000       12.73500000
     10.99300000        5.36100000        5.36100000
      7.10300000       12.73500000       12.73500000
     12.73500000       10.99300000       12.73500000
      5.36200000        7.10300000        5.36100000
     12.73500000        7.10300000        5.36100000
      5.36100000       10.99300000       12.73500000
      5.36100000        7.10300000       12.73500000
     12.73400000       10.99300000        5.36100000
      5.36100000       10.99300000        5.36100000
     12.73400000        7.10300000       12.73500000
     12.73500000       12.73400000       10.99300000
      5.36100000        5.36100000        7.10300000
      5.36100000       12.73500000        7.10300000
     12.73500000        5.36100000       10.99300000
     12.73500000        5.36100000        7.10300000
      5.36100000       12.73500000       10.99300000
      5.36100000        5.36100000       10.99300000
     12.73400000       12.73400000        7.10300000
     10.99300000       12.73400000       14.08400000
