# File generated with Atomsk by madmaxiiemus on 2025-05-06 21:20:37
1.000000
      7.09700000        0.00000000        0.00000000
      0.00000000        7.09700000        0.00000000
      0.00000000        0.00000000       24.58800000
 C  O  H
   256      16       8
Cartesian
      4.64700000        5.23200000        6.45400000
      3.33900000        1.63200000       13.31900000
      3.38800000        5.21100000        8.60600000
      2.16300000        5.23200000        6.45400000
      4.65100000        1.58100000       18.13300000
      3.33800000        5.18200000       11.26900000
      3.39100000        1.60200000       15.98100000
      2.16600000        1.58100000       18.13400000
      3.33800000        3.93900000       11.98600000
      6.95400000        5.23200000        5.12200000
      3.36500000        5.19400000        9.83400000
      3.33800000        6.42300000       11.98700000
     -0.07400000        3.93800000        0.30700000
      3.40400000        5.23200000        7.17100000
     -0.10300000        5.19400000        2.45900000
     -0.07400000        6.42300000        0.30700000
     -0.07400000        2.87500000       24.28000000
      3.40800000        1.58100000       17.41600000
     -0.10000000        1.61900000       22.12900000
     -0.07400000        0.39000000       24.28100000
      3.33800000        2.87500000       12.60200000
     -0.14000000        1.58100000       19.46600000
      3.36700000        1.61900000       14.75300000
      3.33800000        0.39000000       12.60100000
      5.71400000        1.58100000       18.74800000
     -0.07500000        5.18100000        1.02500000
     -0.12300000        1.60200000       20.90000000
      1.10200000        1.58100000       18.74800000
      5.71100000        5.23200000        5.83900000
     -0.07300000        1.63100000       23.56300000
     -0.12700000        5.21100000        3.68800000
      1.09800000        5.23200000        5.84000000
      4.64700000        5.23200000       31.04200000
      3.33900000        1.63200000       37.90700000
      3.38800000        5.21100000       33.19400000
      2.16300000        5.23200000       31.04200000
      4.65100000        1.58100000       42.72100000
      3.33800000        5.18200000       35.85700000
      3.39100000        1.60200000       40.56900000
      2.16600000        1.58100000       42.72200000
      3.33800000        3.93900000       36.57400000
      6.95400000        5.23200000       29.71000000
      3.36500000        5.19400000       34.42200000
      3.33800000        6.42300000       36.57500000
     -0.07400000        3.93800000       24.89500000
      3.40400000        5.23200000       31.75900000
     -0.10300000        5.19400000       27.04700000
     -0.07400000        6.42300000       24.89500000
     -0.07400000        2.87500000       48.86800000
      3.40800000        1.58100000       42.00400000
     -0.10000000        1.61900000       46.71700000
     -0.07400000        0.39000000       48.86900000
      3.33800000        2.87500000       37.19000000
     -0.14000000        1.58100000       44.05400000
      3.36700000        1.61900000       39.34100000
      3.33800000        0.39000000       37.18900000
      5.71400000        1.58100000       43.33600000
     -0.07500000        5.18100000       25.61300000
     -0.12300000        1.60200000       45.48800000
      1.10200000        1.58100000       43.33600000
      5.71100000        5.23200000       30.42700000
     -0.07300000        1.63100000       48.15100000
     -0.12700000        5.21100000       28.27600000
      1.09800000        5.23200000       30.42800000
      4.64700000       12.32900000        6.45400000
      3.33900000        8.72900000       13.31900000
      3.38800000       12.30800000        8.60600000
      2.16300000       12.32900000        6.45400000
      4.65100000        8.67800000       18.13300000
      3.33800000       12.27900000       11.26900000
      3.39100000        8.69900000       15.98100000
      2.16600000        8.67800000       18.13400000
      3.33800000       11.03600000       11.98600000
      6.95400000       12.32900000        5.12200000
      3.36500000       12.29100000        9.83400000
      3.33800000       13.52000000       11.98700000
     -0.07400000       11.03500000        0.30700000
      3.40400000       12.32900000        7.17100000
     -0.10300000       12.29100000        2.45900000
     -0.07400000       13.52000000        0.30700000
     -0.07400000        9.97200000       24.28000000
      3.40800000        8.67800000       17.41600000
     -0.10000000        8.71600000       22.12900000
     -0.07400000        7.48700000       24.28100000
      3.33800000        9.97200000       12.60200000
     -0.14000000        8.67800000       19.46600000
      3.36700000        8.71600000       14.75300000
      3.33800000        7.48700000       12.60100000
      5.71400000        8.67800000       18.74800000
     -0.07500000       12.27800000        1.02500000
     -0.12300000        8.69900000       20.90000000
      1.10200000        8.67800000       18.74800000
      5.71100000       12.32900000        5.83900000
     -0.07300000        8.72800000       23.56300000
     -0.12700000       12.30800000        3.68800000
      1.09800000       12.32900000        5.84000000
      4.64700000       12.32900000       31.04200000
      3.33900000        8.72900000       37.90700000
      3.38800000       12.30800000       33.19400000
      2.16300000       12.32900000       31.04200000
      4.65100000        8.67800000       42.72100000
      3.33800000       12.27900000       35.85700000
      3.39100000        8.69900000       40.56900000
      2.16600000        8.67800000       42.72200000
      3.33800000       11.03600000       36.57400000
      6.95400000       12.32900000       29.71000000
      3.36500000       12.29100000       34.42200000
      3.33800000       13.52000000       36.57500000
     -0.07400000       11.03500000       24.89500000
      3.40400000       12.32900000       31.75900000
     -0.10300000       12.29100000       27.04700000
     -0.07400000       13.52000000       24.89500000
     -0.07400000        9.97200000       48.86800000
      3.40800000        8.67800000       42.00400000
     -0.10000000        8.71600000       46.71700000
     -0.07400000        7.48700000       48.86900000
      3.33800000        9.97200000       37.19000000
     -0.14000000        8.67800000       44.05400000
      3.36700000        8.71600000       39.34100000
      3.33800000        7.48700000       37.18900000
      5.71400000        8.67800000       43.33600000
     -0.07500000       12.27800000       25.61300000
     -0.12300000        8.69900000       45.48800000
      1.10200000        8.67800000       43.33600000
      5.71100000       12.32900000       30.42700000
     -0.07300000        8.72800000       48.15100000
     -0.12700000       12.30800000       28.27600000
      1.09800000       12.32900000       30.42800000
     11.74400000        5.23200000        6.45400000
     10.43600000        1.63200000       13.31900000
     10.48500000        5.21100000        8.60600000
      9.26000000        5.23200000        6.45400000
     11.74800000        1.58100000       18.13300000
     10.43500000        5.18200000       11.26900000
     10.48800000        1.60200000       15.98100000
      9.26300000        1.58100000       18.13400000
     10.43500000        3.93900000       11.98600000
     14.05100000        5.23200000        5.12200000
     10.46200000        5.19400000        9.83400000
     10.43500000        6.42300000       11.98700000
      7.02300000        3.93800000        0.30700000
     10.50100000        5.23200000        7.17100000
      6.99400000        5.19400000        2.45900000
      7.02300000        6.42300000        0.30700000
      7.02300000        2.87500000       24.28000000
     10.50500000        1.58100000       17.41600000
      6.99700000        1.61900000       22.12900000
      7.02300000        0.39000000       24.28100000
     10.43500000        2.87500000       12.60200000
      6.95700000        1.58100000       19.46600000
     10.46400000        1.61900000       14.75300000
     10.43500000        0.39000000       12.60100000
     12.81100000        1.58100000       18.74800000
      7.02200000        5.18100000        1.02500000
      6.97400000        1.60200000       20.90000000
      8.19900000        1.58100000       18.74800000
     12.80800000        5.23200000        5.83900000
      7.02400000        1.63100000       23.56300000
      6.97000000        5.21100000        3.68800000
      8.19500000        5.23200000        5.84000000
     11.74400000        5.23200000       31.04200000
     10.43600000        1.63200000       37.90700000
     10.48500000        5.21100000       33.19400000
      9.26000000        5.23200000       31.04200000
     11.74800000        1.58100000       42.72100000
     10.43500000        5.18200000       35.85700000
     10.48800000        1.60200000       40.56900000
      9.26300000        1.58100000       42.72200000
     10.43500000        3.93900000       36.57400000
     14.05100000        5.23200000       29.71000000
     10.46200000        5.19400000       34.42200000
     10.43500000        6.42300000       36.57500000
      7.02300000        3.93800000       24.89500000
     10.50100000        5.23200000       31.75900000
      6.99400000        5.19400000       27.04700000
      7.02300000        6.42300000       24.89500000
      7.02300000        2.87500000       48.86800000
     10.50500000        1.58100000       42.00400000
      6.99700000        1.61900000       46.71700000
      7.02300000        0.39000000       48.86900000
     10.43500000        2.87500000       37.19000000
      6.95700000        1.58100000       44.05400000
     10.46400000        1.61900000       39.34100000
     10.43500000        0.39000000       37.18900000
     12.81100000        1.58100000       43.33600000
      7.02200000        5.18100000       25.61300000
      6.97400000        1.60200000       45.48800000
      8.19900000        1.58100000       43.33600000
     12.80800000        5.23200000       30.42700000
      7.02400000        1.63100000       48.15100000
      6.97000000        5.21100000       28.27600000
      8.19500000        5.23200000       30.42800000
     11.74400000       12.32900000        6.45400000
     10.43600000        8.72900000       13.31900000
     10.48500000       12.30800000        8.60600000
      9.26000000       12.32900000        6.45400000
     11.74800000        8.67800000       18.13300000
     10.43500000       12.27900000       11.26900000
     10.48800000        8.69900000       15.98100000
      9.26300000        8.67800000       18.13400000
     10.43500000       11.03600000       11.98600000
     14.05100000       12.32900000        5.12200000
     10.46200000       12.29100000        9.83400000
     10.43500000       13.52000000       11.98700000
      7.02300000       11.03500000        0.30700000
     10.50100000       12.32900000        7.17100000
      6.99400000       12.29100000        2.45900000
      7.02300000       13.52000000        0.30700000
      7.02300000        9.97200000       24.28000000
     10.50500000        8.67800000       17.41600000
      6.99700000        8.71600000       22.12900000
      7.02300000        7.48700000       24.28100000
     10.43500000        9.97200000       12.60200000
      6.95700000        8.67800000       19.46600000
     10.46400000        8.71600000       14.75300000
     10.43500000        7.48700000       12.60100000
     12.81100000        8.67800000       18.74800000
      7.02200000       12.27800000        1.02500000
      6.97400000        8.69900000       20.90000000
      8.19900000        8.67800000       18.74800000
     12.80800000       12.32900000        5.83900000
      7.02400000        8.72800000       23.56300000
      6.97000000       12.30800000        3.68800000
      8.19500000       12.32900000        5.84000000
     11.74400000       12.32900000       31.04200000
     10.43600000        8.72900000       37.90700000
     10.48500000       12.30800000       33.19400000
      9.26000000       12.32900000       31.04200000
     11.74800000        8.67800000       42.72100000
     10.43500000       12.27900000       35.85700000
     10.48800000        8.69900000       40.56900000
      9.26300000        8.67800000       42.72200000
     10.43500000       11.03600000       36.57400000
     14.05100000       12.32900000       29.71000000
     10.46200000       12.29100000       34.42200000
     10.43500000       13.52000000       36.57500000
      7.02300000       11.03500000       24.89500000
     10.50100000       12.32900000       31.75900000
      6.99400000       12.29100000       27.04700000
      7.02300000       13.52000000       24.89500000
      7.02300000        9.97200000       48.86800000
     10.50500000        8.67800000       42.00400000
      6.99700000        8.71600000       46.71700000
      7.02300000        7.48700000       48.86900000
     10.43500000        9.97200000       37.19000000
      6.95700000        8.67800000       44.05400000
     10.46400000        8.71600000       39.34100000
     10.43500000        7.48700000       37.18900000
     12.81100000        8.67800000       43.33600000
      7.02200000       12.27800000       25.61300000
      6.97400000        8.69900000       45.48800000
      8.19900000        8.67800000       43.33600000
     12.80800000       12.32900000       30.42700000
      7.02400000        8.72800000       48.15100000
      6.97000000       12.30800000       28.27600000
      8.19500000       12.32900000       30.42800000
      3.53900000        5.63600000       13.06400000
      4.57200000        5.31800000       14.11900000
      3.53900000        5.63600000       37.65200000
      4.57200000        5.31800000       38.70700000
      3.53900000       12.73300000       13.06400000
      4.57200000       12.41500000       14.11900000
      3.53900000       12.73300000       37.65200000
      4.57200000       12.41500000       38.70700000
     10.63600000        5.63600000       13.06400000
     11.66900000        5.31800000       14.11900000
     10.63600000        5.63600000       37.65200000
     11.66900000        5.31800000       38.70700000
     10.63600000       12.73300000       13.06400000
     11.66900000       12.41500000       14.11900000
     10.63600000       12.73300000       37.65200000
     11.66900000       12.41500000       38.70700000
      3.88800000        5.13300000       14.82000000
      3.88800000        5.13300000       39.40800000
      3.88800000       12.23000000       14.82000000
      3.88800000       12.23000000       39.40800000
     10.98500000        5.13300000       14.82000000
     10.98500000        5.13300000       39.40800000
     10.98500000       12.23000000       14.82000000
     10.98500000       12.23000000       39.40800000
