1   
      1.000000000000
     19.552829742432        0.000000000000        0.000000000000
      0.000000000000       19.552829742432        0.000000000000
      0.000000000000        0.000000000000       19.552829742432
C
320 
Direct
      0.909750699997       0.308102220297       0.222929373384 
      0.839832425117       0.286713987589       0.233136057854 
      0.508574485779       0.508574485779       0.008574564941 
      0.308102220297       0.909750699997       0.222929373384 
      0.378023028374       0.931138873100       0.233136057854 
      0.709278404713       0.709278404713       0.008574564941 
      0.909750699997       0.909750699997      -0.005074748769 
      0.839832425117       0.931138873100      -0.015281316824 
      0.508574485779       0.709278404713       0.209280192852 
      0.308102220297       0.308102220297      -0.005074748769 
      0.378023028374       0.286713987589      -0.015281316824 
      0.709278404713       0.508574485779       0.209280192852 
      0.222929373384       0.909750699997       0.308102220297 
      0.233136057854       0.839832425117       0.286713987589 
      0.008574564941       0.508574485779       0.508574485779 
      0.222929373384       0.308102220297       0.909750699997 
      0.233136057854       0.378023028374       0.931138873100 
      0.008574564941       0.709278404713       0.709278404713 
     -0.005074748769       0.909750699997       0.909750699997 
     -0.015281316824       0.839832425117       0.931138873100 
      0.209280192852       0.508574485779       0.709278404713 
     -0.005074748769       0.308102220297       0.308102220297 
     -0.015281316824       0.378023028374       0.286713987589 
      0.209280192852       0.709278404713       0.508574485779 
      0.308102220297       0.222929373384       0.909750699997 
      0.286713987589       0.233136057854       0.839832425117 
      0.508574485779       0.008574564941       0.508574485779 
      0.909750699997       0.222929373384       0.308102220297 
      0.931138873100       0.233136057854       0.378023028374 
      0.709278404713       0.008574564941       0.709278404713 
      0.909750699997      -0.005074748769       0.909750699997 
      0.931138873100      -0.015281316824       0.839832425117 
      0.709278404713       0.209280192852       0.508574485779 
      0.308102220297      -0.005074748769       0.308102220297 
      0.286713987589      -0.015281316824       0.378023028374 
      0.508574485779       0.209280192852       0.709278404713 
      0.659751057625       0.058102075011       0.744925439358 
      0.681139290333       0.128022909164       0.734717190266 
      0.459280341864       0.459280341864       0.959277987480 
      0.058102075011       0.659751057625       0.744925439358 
      0.036713767797       0.589832782745       0.734717190266 
      0.258574336767       0.258574336767       0.959277987480 
      0.058102075011       0.058102075011       0.972928225994 
      0.036713767797       0.128022909164       0.983136475086 
      0.258574336767       0.459280341864       0.758575618267 
      0.659751057625       0.659751057625       0.972928225994 
      0.681139290333       0.589832782745       0.983136475086 
      0.459280341864       0.258574336767       0.758575618267 
      0.058102075011       0.744925439358       0.659751057625 
      0.128022909164       0.734717190266       0.681139290333 
      0.459280341864       0.959277987480       0.459280341864 
      0.659751057625       0.744925439358       0.058102075011 
      0.589832782745       0.734717190266       0.036713767797 
      0.258574336767       0.959277987480       0.258574336767 
      0.058102075011       0.972928225994       0.058102075011 
      0.128022909164       0.983136475086       0.036713767797 
      0.459280341864       0.758575618267       0.258574336767 
      0.659751057625       0.972928225994       0.659751057625 
      0.589832782745       0.983136475086       0.681139290333 
      0.258574336767       0.758575618267       0.459280341864 
      0.744925439358       0.659751057625       0.058102075011 
      0.734717190266       0.681139290333       0.128022909164 
      0.959277987480       0.459280341864       0.459280341864 
      0.744925439358       0.058102075011       0.659751057625 
      0.734717190266       0.036713767797       0.589832782745 
      0.959277987480       0.258574336767       0.258574336767 
      0.972928225994       0.058102075011       0.058102075011 
      0.983136475086       0.036713767797       0.128022909164 
      0.758575618267       0.258574336767       0.459280341864 
      0.972928225994       0.659751057625       0.659751057625 
      0.983136475086       0.681139290333       0.589832782745 
      0.758575618267       0.459280341864       0.258574336767 
      0.558103382587       0.159752830863       0.744925439358 
      0.536715149879       0.089831493795       0.734717190266 
      0.758575618267       0.758575618267       0.959277987480 
      0.159752830863       0.558103382587       0.744925439358 
      0.181141048670       0.628021657467       0.734717190266 
      0.959277987480       0.959277987480       0.959277987480 
      0.159752830863       0.159752830863       0.972928225994 
      0.181141048670       0.089831493795       0.983136475086 
      0.959277987480       0.758575618267       0.758575618267 
      0.558103382587       0.558103382587       0.972928225994 
      0.536715149879       0.628021657467       0.983136475086 
      0.758575618267       0.959277987480       0.758575618267 
      0.159752830863       0.472929507494       0.659751057625 
      0.089831493795       0.483136206865       0.681139290333 
      0.558103382587       0.472929507494       0.058102075011 
      0.628021657467       0.483136206865       0.036713767797 
      0.159752830863       0.244925156236       0.058102075011 
      0.089831493795       0.234718441963       0.036713767797 
      0.558103382587       0.244925156236       0.659751057625 
      0.628021657467       0.234718441963       0.681139290333 
      0.472929507494       0.558103382587       0.058102075011 
      0.483136206865       0.536715149879       0.128022909164 
      0.472929507494       0.159752830863       0.659751057625 
      0.483136206865       0.181141048670       0.589832782745 
      0.244925156236       0.159752830863       0.058102075011 
      0.234718441963       0.181141048670       0.128022909164 
      0.244925156236       0.558103382587       0.659751057625 
      0.234718441963       0.536715149879       0.589832782745 
      0.558103382587       0.058102075011       0.472929507494 
      0.536715149879       0.128022909164       0.483136206865 
      0.159752830863       0.659751057625       0.472929507494 
      0.181141048670       0.589832782745       0.483136206865 
      0.159752830863       0.058102075011       0.244925156236 
      0.181141048670       0.128022909164       0.234718441963 
      0.558103382587       0.659751057625       0.244925156236 
      0.536715149879       0.589832782745       0.234718441963 
      0.159752830863       0.744925439358       0.558103382587 
      0.089831493795       0.734717190266       0.536715149879 
      0.558103382587       0.744925439358       0.159752830863 
      0.628021657467       0.734717190266       0.181141048670 
      0.159752830863       0.972928225994       0.159752830863 
      0.089831493795       0.983136475086       0.181141048670 
      0.558103382587       0.972928225994       0.558103382587 
      0.628021657467       0.983136475086       0.536715149879 
      0.472929507494       0.659751057625       0.159752830863 
      0.483136206865       0.681139290333       0.089831493795 
      0.472929507494       0.058102075011       0.558103382587 
      0.483136206865       0.036713767797       0.628021657467 
      0.244925156236       0.058102075011       0.159752830863 
      0.234718441963       0.036713767797       0.089831493795 
      0.244925156236       0.659751057625       0.558103382587 
      0.234718441963       0.681139290333       0.628021657467 
      0.409752994776       0.409752994776      -0.005074748769 
      0.339831620455       0.431141167879      -0.015281316824 
      0.008574564941       0.209280192852       0.209280192852 
      0.808102965355       0.808102965355      -0.005074748769 
      0.878021299839       0.786714732647      -0.015281316824 
      0.209280192852       0.008574564941       0.209280192852 
      0.409752994776       0.808102965355       0.222929373384 
      0.339831620455       0.786714732647       0.233136057854 
      0.008574564941       0.008574564941       0.008574564941 
      0.808102965355       0.409752994776       0.222929373384 
      0.878021299839       0.431141167879       0.233136057854 
      0.209280192852       0.209280192852       0.008574564941 
      0.722928583622       0.808102965355       0.909750699997 
      0.733136832714       0.878021299839       0.931138873100 
      0.722928583622       0.409752994776       0.308102220297 
      0.733136832714       0.339831620455       0.286713987589 
      0.494925290346       0.808102965355       0.308102220297 
      0.484718590975       0.878021299839       0.286713987589 
      0.494925290346       0.409752994776       0.909750699997 
      0.484718590975       0.339831620455       0.931138873100 
      0.808102965355       0.494925290346       0.308102220297 
      0.786714732647       0.484718590975       0.378023028374 
      0.409752994776       0.494925290346       0.909750699997 
      0.431141167879       0.484718590975       0.839832425117 
      0.409752994776       0.722928583622       0.308102220297 
      0.431141167879       0.733136832714       0.378023028374 
      0.808102965355       0.722928583622       0.909750699997 
      0.786714732647       0.733136832714       0.839832425117 
      0.659751057625       0.159752830863       0.472929507494 
      0.681139290333       0.089831493795       0.483136206865 
      0.058102075011       0.558103382587       0.472929507494 
      0.036713767797       0.628021657467       0.483136206865 
      0.058102075011       0.159752830863       0.244925156236 
      0.036713767797       0.089831493795       0.234718441963 
      0.659751057625       0.558103382587       0.244925156236 
      0.681139290333       0.628021657467       0.234718441963 
      0.058102075011       0.472929507494       0.558103382587 
      0.128022909164       0.483136206865       0.536715149879 
      0.659751057625       0.472929507494       0.159752830863 
      0.589832782745       0.483136206865       0.181141048670 
      0.058102075011       0.244925156236       0.159752830863 
      0.128022909164       0.234718441963       0.181141048670 
      0.659751057625       0.244925156236       0.558103382587 
      0.589832782745       0.234718441963       0.536715149879 
      0.744925439358       0.558103382587       0.159752830863 
      0.734717190266       0.536715149879       0.089831493795 
      0.744925439358       0.159752830863       0.558103382587 
      0.734717190266       0.181141048670       0.628021657467 
      0.972928225994       0.159752830863       0.159752830863 
      0.983136475086       0.181141048670       0.089831493795 
      0.972928225994       0.558103382587       0.558103382587 
      0.983136475086       0.536715149879       0.628021657467 
      0.909750699997       0.808102965355       0.722928583622 
      0.839832425117       0.786714732647       0.733136832714 
      0.308102220297       0.409752994776       0.722928583622 
      0.378023028374       0.431141167879       0.733136832714 
      0.909750699997       0.409752994776       0.494925290346 
      0.839832425117       0.431141167879       0.484718590975 
      0.308102220297       0.808102965355       0.494925290346 
      0.378023028374       0.786714732647       0.484718590975 
      0.222929373384       0.409752994776       0.808102965355 
      0.233136057854       0.339831620455       0.786714732647 
      0.222929373384       0.808102965355       0.409752994776 
      0.233136057854       0.878021299839       0.431141167879 
     -0.005074748769       0.409752994776       0.409752994776 
     -0.015281316824       0.339831620455       0.431141167879 
     -0.005074748769       0.808102965355       0.808102965355 
     -0.015281316824       0.878021299839       0.786714732647 
      0.308102220297       0.722928583622       0.409752994776 
      0.286713987589       0.733136832714       0.339831620455 
      0.909750699997       0.722928583622       0.808102965355 
      0.931138873100       0.733136832714       0.878021299839 
      0.909750699997       0.494925290346       0.409752994776 
      0.931138873100       0.484718590975       0.339831620455 
      0.308102220297       0.494925290346       0.808102965355 
      0.286713987589       0.484718590975       0.878021299839 
      0.409752994776       0.222929373384       0.808102965355 
      0.431141167879       0.233136057854       0.878021299839 
      0.808102965355       0.222929373384       0.409752994776 
      0.786714732647       0.233136057854       0.339831620455 
      0.808102965355      -0.005074748769       0.808102965355 
      0.786714732647      -0.015281316824       0.878021299839 
      0.409752994776      -0.005074748769       0.409752994776 
      0.431141167879      -0.015281316824       0.339831620455 
      0.808102965355       0.308102220297       0.494925290346 
      0.878021299839       0.286713987589       0.484718590975 
      0.409752994776       0.909750699997       0.494925290346 
      0.339831620455       0.931138873100       0.484718590975 
      0.808102965355       0.909750699997       0.722928583622 
      0.878021299839       0.931138873100       0.733136832714 
      0.409752994776       0.308102220297       0.722928583622 
      0.339831620455       0.286713987589       0.733136832714 
      0.494925290346       0.909750699997       0.409752994776 
      0.484718590975       0.839832425117       0.431141167879 
      0.494925290346       0.308102220297       0.808102965355 
      0.484718590975       0.378023028374       0.786714732647 
      0.722928583622       0.909750699997       0.808102965355 
      0.733136832714       0.839832425117       0.786714732647 
      0.722928583622       0.308102220297       0.409752994776 
      0.733136832714       0.378023028374       0.431141167879 
      0.128022909164       0.681139290333       0.734717190266 
      0.589832782745       0.036713767797       0.734717190266 
      0.128022909164       0.036713767797       0.983136475086 
      0.589832782745       0.681139290333       0.983136475086 
      0.734717190266       0.128022909164       0.681139290333 
      0.734717190266       0.589832782745       0.036713767797 
      0.983136475086       0.128022909164       0.036713767797 
      0.983136475086       0.589832782745       0.681139290333 
      0.681139290333       0.734717190266       0.128022909164 
      0.036713767797       0.734717190266       0.589832782745 
      0.036713767797       0.983136475086       0.128022909164 
      0.681139290333       0.983136475086       0.589832782745 
      0.286713987589       0.839832425117       0.233136057854 
      0.931138873100       0.378023028374       0.233136057854 
      0.931138873100       0.839832425117      -0.015281316824 
      0.286713987589       0.378023028374      -0.015281316824 
      0.839832425117       0.233136057854       0.286713987589 
      0.378023028374       0.233136057854       0.931138873100 
      0.839832425117      -0.015281316824       0.931138873100 
      0.378023028374      -0.015281316824       0.286713987589 
      0.233136057854       0.286713987589       0.839832425117 
      0.233136057854       0.931138873100       0.378023028374 
     -0.015281316824       0.931138873100       0.839832425117 
     -0.015281316824       0.286713987589       0.378023028374 
      0.431141167879       0.878021299839       0.233136057854 
      0.786714732647       0.339831620455       0.233136057854 
      0.786714732647       0.878021299839      -0.015281316824 
      0.431141167879       0.339831620455      -0.015281316824 
      0.878021299839       0.484718590975       0.286713987589 
      0.339831620455       0.484718590975       0.931138873100 
      0.878021299839       0.733136832714       0.931138873100 
      0.339831620455       0.733136832714       0.286713987589 
      0.484718590975       0.431141167879       0.839832425117 
      0.484718590975       0.786714732647       0.378023028374 
      0.733136832714       0.786714732647       0.839832425117 
      0.733136832714       0.431141167879       0.378023028374 
      0.431141167879       0.839832425117       0.484718590975 
      0.786714732647       0.378023028374       0.484718590975 
      0.786714732647       0.839832425117       0.733136832714 
      0.431141167879       0.378023028374       0.733136832714 
      0.878021299839       0.233136057854       0.431141167879 
      0.339831620455       0.233136057854       0.786714732647 
      0.878021299839      -0.015281316824       0.786714732647 
      0.339831620455      -0.015281316824       0.431141167879 
      0.484718590975       0.286713987589       0.878021299839 
      0.484718590975       0.931138873100       0.339831620455 
      0.733136832714       0.931138873100       0.878021299839 
      0.733136832714       0.286713987589       0.339831620455 
      0.628021657467       0.536715149879       0.983136475086 
      0.089831493795       0.181141048670       0.983136475086 
      0.628021657467       0.181141048670       0.734717190266 
      0.089831493795       0.536715149879       0.734717190266 
      0.234718441963       0.089831493795       0.036713767797 
      0.234718441963       0.628021657467       0.681139290333 
      0.483136206865       0.089831493795       0.681139290333 
      0.483136206865       0.628021657467       0.036713767797 
      0.181141048670       0.483136206865       0.589832782745 
      0.536715149879       0.483136206865       0.128022909164 
      0.536715149879       0.234718441963       0.589832782745 
      0.181141048670       0.234718441963       0.128022909164 
      0.286713987589       0.878021299839       0.484718590975 
      0.931138873100       0.339831620455       0.484718590975 
      0.931138873100       0.878021299839       0.733136832714 
      0.286713987589       0.339831620455       0.733136832714 
      0.839832425117       0.484718590975       0.431141167879 
      0.378023028374       0.484718590975       0.786714732647 
      0.839832425117       0.733136832714       0.786714732647 
      0.378023028374       0.733136832714       0.431141167879 
      0.233136057854       0.431141167879       0.878021299839 
      0.233136057854       0.786714732647       0.339831620455 
     -0.015281316824       0.786714732647       0.878021299839 
     -0.015281316824       0.431141167879       0.339831620455 
      0.128022909164       0.181141048670       0.234718441963 
      0.589832782745       0.536715149879       0.234718441963 
      0.128022909164       0.536715149879       0.483136206865 
      0.589832782745       0.181141048670       0.483136206865 
      0.734717190266       0.628021657467       0.181141048670 
      0.734717190266       0.089831493795       0.536715149879 
      0.983136475086       0.628021657467       0.536715149879 
      0.983136475086       0.089831493795       0.181141048670 
      0.681139290333       0.234718441963       0.628021657467 
      0.036713767797       0.234718441963       0.089831493795 
      0.036713767797       0.483136206865       0.628021657467 
      0.681139290333       0.483136206865       0.089831493795 
      0.536715149879       0.734717190266       0.089831493795 
      0.181141048670       0.734717190266       0.628021657467 
      0.181141048670       0.983136475086       0.089831493795 
      0.536715149879       0.983136475086       0.628021657467 
      0.089831493795       0.681139290333       0.483136206865 
      0.628021657467       0.036713767797       0.483136206865 
      0.089831493795       0.036713767797       0.234718441963 
      0.628021657467       0.681139290333       0.234718441963 
      0.483136206865       0.128022909164       0.536715149879 
      0.483136206865       0.589832782745       0.181141048670 
      0.234718441963       0.128022909164       0.181141048670 
      0.234718441963       0.589832782745       0.536715149879 
