&CONTROL
   calculation      = 'relax'
   restart_mode     = 'from_scratch'
   nstep            = 1000
   tprnfor          = .true.
   etot_conv_thr    = 0.0001
   forc_conv_thr    = 0.001
/
&SYSTEM
   tot_magnetization = 0
   ecutwfc          = 50
   ecutrho          = 400
   occupations      = 'smearing'
   degauss          = 0.0001
   smearing         = 'gaussian'
   nspin            = 2
   input_dft        = 'pbe'
   ntyp             = 1
   nat              = 32
   ibrav            = 0
/
&ELECTRONS
   electron_maxstep = 100
   scf_must_converge = .false.
   conv_thr         = 1e-06
   mixing_mode      = 'plain'
   mixing_beta      = 0.3
   diagonalization  = 'david'
/
&IONS
   ion_dynamics     = 'bfgs'
   bfgs_ndim        = 1
/
&CELL
/
&FCP
/
&RISM
/
ATOMIC_SPECIES
C  12.011 C.pbe-n-kjpaw_psl.1.0.0.UPF

K_POINTS gamma

CELL_PARAMETERS angstrom
6.81300000000000 0.00000000000000 0.00000000000000
0.00000000000000 6.81300000000000 0.00000000000000
0.00000000000000 0.00000000000000 24.58800000000000

ATOMIC_POSITIONS angstrom
C  4.5950000000 5.1100000000 6.5030000000  
C  3.4070000000 1.7030000000 13.3440000000  
C  3.4070000000 5.1100000000 8.6080000000  
C  2.2180000000 5.1100000000 6.5030000000  
C  4.5950000000 1.7030000000 18.0850000000  
C  3.4070000000 5.1100000000 11.2430000000  
C  3.4070000000 1.7030000000 15.9800000000  
C  2.2180000000 1.7030000000 18.0850000000  
C  3.4070000000 3.9210000000 11.9380000000  
C  6.8130000000 5.1100000000 5.0970000000  
C  3.4070000000 5.1100000000 9.8330000000  
C  3.4070000000 6.2990000000 11.9380000000  
C  0.0000000000 3.9210000000 0.3560000000  
C  3.4070000000 5.1100000000 7.1970000000  
C  0.0000000000 5.1100000000 2.4610000000  
C  0.0000000000 6.2990000000 0.3560000000  
C  0.0000000000 2.8920000000 24.2320000000  
C  3.4070000000 1.7030000000 17.3900000000  
C  0.0000000000 1.7030000000 22.1270000000  
C  0.0000000000 0.5140000000 24.2320000000  
C  3.4070000000 2.8920000000 12.6500000000  
C  0.0000000000 1.7030000000 19.4910000000  
C  3.4070000000 1.7030000000 14.7550000000  
C  3.4070000000 0.5140000000 12.6500000000  
C  5.6240000000 1.7030000000 18.7970000000  
C  0.0000000000 5.1100000000 1.0500000000  
C  0.0000000000 1.7030000000 20.9020000000  
C  1.1890000000 1.7030000000 18.7970000000  
C  5.6240000000 5.1100000000 5.7910000000  
C  0.0000000000 1.7030000000 23.5370000000  
C  0.0000000000 5.1100000000 3.6860000000  
C  1.1890000000 5.1100000000 5.7910000000  

