# HEADER
1.000000
      6.81300000        0.00000000        0.00000000
      0.00000000        6.81300000        0.00000000
      0.00000000        0.00000000       24.58800000
 C
    32
Cartesian
      4.59500000        5.11000000        6.50300000
      3.40700000        1.70300000       13.34400000
      3.40700000        5.11000000        8.60800000
      2.21800000        5.11000000        6.50300000
      4.59500000        1.70300000       18.08500000
      3.40700000        5.11000000       11.24300000
      3.40700000        1.70300000       15.98000000
      2.21800000        1.70300000       18.08500000
      3.40700000        3.92100000       11.93800000
      6.81300000        5.11000000        5.09700000
      3.40700000        5.11000000        9.83300000
      3.40700000        6.29900000       11.93800000
      0.00000000        3.92100000        0.35600000
      3.40700000        5.11000000        7.19700000
      0.00000000        5.11000000        2.46100000
      0.00000000        6.29900000        0.35600000
      0.00000000        2.89200000       24.23200000
      3.40700000        1.70300000       17.39000000
      0.00000000        1.70300000       22.12700000
      0.00000000        0.51400000       24.23200000
      3.40700000        2.89200000       12.65000000
      0.00000000        1.70300000       19.49100000
      3.40700000        1.70300000       14.75500000
      3.40700000        0.51400000       12.65000000
      5.62400000        1.70300000       18.79700000
      0.00000000        5.11000000        1.05000000
      0.00000000        1.70300000       20.90200000
      1.18900000        1.70300000       18.79700000
      5.62400000        5.11000000        5.79100000
      0.00000000        1.70300000       23.53700000
      0.00000000        5.11000000        3.68600000
      1.18900000        5.11000000        5.79100000
