# File generated with Atomsk by geedai on 2025-05-21 15:40:59
1.000000
     13.60000000        0.00000000        0.00000000
      0.00000000       13.60000000        0.00000000
      0.00000000        0.00000000       13.60000000
 C  O  H
    72       2       1
Cartesian
      6.67200000        0.88200000        7.68200000
      6.67300000        1.89600000        8.69600000
      6.67200000        2.76300000        9.56300000
     -0.12700000        5.66200000        7.68300000
     13.47200000        4.64900000        8.69600000
     13.47100000        3.78100000        9.56300000
      6.67300000        5.66300000       12.46300000
      6.67200000        4.65000000       11.44900000
      6.67200000        3.78300000       10.58200000
     -0.12700000        0.88300000       12.46200000
     -0.12700000        1.89600000       11.44900000
     13.47200000        2.76300000       10.58200000
      7.68200000        6.67200000        0.88200000
      8.69600000        6.67300000        1.89600000
      9.56300000        6.67200000        2.76300000
      7.68300000       -0.12700000        5.66200000
      8.69600000       13.47200000        4.64900000
      9.56300000       13.47100000        3.78100000
     12.46300000        6.67300000        5.66300000
     11.44900000        6.67200000        4.65000000
     10.58200000        6.67200000        3.78300000
     12.46200000       -0.12700000        0.88200000
     11.44900000       -0.12700000        1.89600000
     10.58200000       13.47200000        2.76300000
      0.88200000        7.68200000        6.67200000
      1.89600000        8.69600000        6.67300000
      2.76300000        9.56300000        6.67200000
      5.66200000        7.68300000       -0.12700000
      4.64900000        8.69600000       13.47200000
      3.78100000        9.56300000       13.47100000
      5.66300000       12.46300000        6.67300000
      4.65000000       11.44900000        6.67200000
      3.78300000       10.58200000        6.67200000
      0.88200000       12.46200000       -0.12700000
      1.89600000       11.44900000       13.47200000
      2.76300000       10.58200000       13.47200000
      6.67300000       12.46300000        5.66300000
      6.67200000       11.44900000        4.65000000
      6.67200000       10.58200000        3.78300000
     -0.12700000        7.68300000        5.66200000
     13.47200000        8.69600000        4.64900000
     13.47100000        9.56300000        3.78100000
      6.67200000        7.68200000        0.88200000
      6.67300000        8.69600000        1.89600000
      6.67200000        9.56300000        2.76300000
     -0.12700000       12.46200000        0.88200000
     -0.12700000       11.44900000        1.89600000
     13.47200000       10.58200000        2.76300000
      5.66300000        6.67300000       12.46300000
      4.65000000        6.67200000       11.44900000
      3.78300000        6.67200000       10.58200000
      5.66200000       -0.12700000        7.68300000
      4.64900000       13.47200000        8.69600000
      3.78100000       13.47200000        9.56300000
      0.88200000        6.67200000        7.68200000
      1.89600000        6.67300000        8.69600000
      2.76300000        6.67200000        9.56300000
      0.88200000       13.47200000       12.46200000
      1.89600000       13.47200000       11.44900000
      2.76300000       13.47200000       10.58200000
     12.46300000        5.66300000        6.67300000
     11.44900000        4.65000000        6.67200000
     10.58200000        3.78300000        6.67200000
      7.68300000        5.66200000       -0.12700000
      8.69600000        4.64900000       13.47200000
      9.56300000        3.78100000       13.47100000
      7.68200000        0.88200000        6.67200000
      8.69600000        1.89600000        6.67300000
      9.56300000        2.76300000        6.67200000
     12.46200000        0.88300000       -0.12700000
     11.44900000        1.89600000       -0.12700000
     10.58200000        2.76300000       13.47200000
      6.37600000        1.87400000       10.54600000
      7.03000000        0.76000000       11.34800000
      6.29700000        0.10300000       11.51000000
