&CONTROL
   calculation      = 'relax'
   restart_mode     = 'from_scratch'
   nstep            = 1000
   tprnfor          = .true.
   etot_conv_thr    = 0.0001
   forc_conv_thr    = 0.001
/
&SYSTEM
   tot_magnetization = 0
   ecutwfc          = 50
   ecutrho          = 400
   occupations      = 'smearing'
   degauss          = 0.0001
   smearing         = 'gaussian'
   nspin            = 2
   input_dft        = 'pbe'
   ntyp             = 1
   nat              = 72
   ibrav            = 0
/
&ELECTRONS
   electron_maxstep = 100
   scf_must_converge = .false.
   conv_thr         = 1e-06
   mixing_mode      = 'plain'
   mixing_beta      = 0.3
   diagonalization  = 'david'
/
&IONS
   ion_dynamics     = 'bfgs'
   bfgs_ndim        = 1
/
&CELL
/
&FCP
/
&RISM
/
ATOMIC_SPECIES
C  12.011 C.pbe-n-kjpaw_psl.1.0.0.UPF

K_POINTS gamma

CELL_PARAMETERS angstrom
13.59965610504200 0.00000000000000 0.00000000000000
0.00000000000000 13.59963893890400 0.00000000000000
0.00000000000000 0.00000000000000 13.59973239898700

ATOMIC_POSITIONS angstrom
C  6.6724702138 0.8823239858 7.6821602782  
C  6.6726598949 1.8960600764 8.6956900443  
C  6.6723498393 2.7630601447 9.5629392530  
C  -0.1271200028 5.6624399791 7.6826198925  
C  13.4717997457 4.6487003421 8.6958902643  
C  13.4713004145 3.7813699537 9.5628898060  
C  6.6725796452 5.6629599800 12.4630000629  
C  6.6720097915 4.6497002193 11.4490001445  
C  6.6717499934 3.7827998550 10.5817006782  
C  -0.1273750007 0.8825010010 12.4624999182  
C  -0.1273699977 1.8956300522 11.4490998492  
C  13.4719999646 2.7628299338 10.5818992769  
C  7.6821698707 6.6724399053 0.8822680379  
C  8.6956193756 6.6727600929 1.8960799967  
C  9.5629504535 6.6722996712 2.7630000989  
C  7.6826003008 -0.1271300002 5.6624197184  
C  8.6959103819 13.4719002782 4.6487197247  
C  9.5628596660 13.4711999184 3.7813400083  
C  12.4630006684 6.6725898666 5.6629498555  
C  11.4489999537 6.6720200136 4.6496900216  
C  10.5817004893 6.6717399508 3.7827897793  
C  12.4624008224 -0.1273390088 0.8824510325  
C  11.4489999537 -0.1273250006 1.8955800547  
C  10.5818998975 13.4719999822 2.7627998789  
C  0.8822999709 7.6821601739 6.6724500932  
C  1.8960801003 8.6956400130 6.6726900330  
C  2.7630401248 9.5629302767 6.6723297181  
C  5.6624698233 7.6826303229 -0.1271529882  
C  4.6486202861 8.6957997016 13.4717999359  
C  3.7813698631 9.5628792088 13.4714003066  
C  5.6629501054 12.4630003384 6.6726097828  
C  4.6497000088 11.4490000931 6.6720200661  
C  3.7828098987 10.5817001022 6.6717501339  
C  0.8824520602 12.4624004932 -0.1273870004  
C  1.8958399592 11.4493000157 13.4718996406  
C  2.7627298667 10.5818006168 13.4722003759  
C  6.6725601907 12.4630003384 5.6629599881  
C  6.6720097915 11.4490000931 4.6496802943  
C  6.6717499934 10.5816003982 3.7827800520  
C  -0.1270889972 7.6826303229 5.6624497109  
C  13.4715995268 8.6957599821 4.6485798950  
C  13.4714001186 9.5629302767 3.7814101258  
C  6.6724799411 7.6821399089 0.8822799944  
C  6.6725103387 8.6957299898 1.8959498943  
C  6.6724199565 9.5628702922 2.7630501539  
C  -0.1274130103 12.4624004932 0.8824880165  
C  -0.1272490026 11.4490000931 1.8955500623  
C  13.4719999646 10.5818995102 2.7628400040  
C  5.6629602380 6.6725995938 12.4631005782  
C  4.6496902816 6.6720200136 11.4490001445  
C  3.7827997662 6.6717500833 10.5817006782  
C  5.6624698233 -0.1270750059 7.6826498849  
C  4.6485100441 13.4715006516 8.6957103095  
C  3.7814201204 13.4715006516 9.5629595182  
C  0.8822829482 6.6724200455 7.6821797327  
C  1.8960699677 6.6727001084 8.6956503246  
C  2.7630299923 6.6723199362 9.5629392530  
C  0.8824919824 13.4722002008 12.4624999182  
C  1.8957100601 13.4721004968 11.4491995539  
C  2.7627900539 13.4721004968 10.5818992769  
C  12.4630006684 5.6629599800 6.6725700631  
C  11.4489999537 4.6496900867 6.6720099335  
C  10.5815999745 3.7827901278 6.6717501339  
C  7.6826100280 5.6624197140 -0.1271859951  
C  8.6958195944 4.6486403576 13.4716994206  
C  9.5629099234 3.7813898134 13.4714003066  
C  7.6821698707 0.8822960201 6.6724302333  
C  8.6956599057 1.8960400140 6.6726499079  
C  9.5629099234 2.7630500121 6.6723499832  
C  12.4624997159 0.8825079924 -0.1274429956  
C  11.4489999537 1.8955899274 -0.1273390099  
C  10.5818998975 2.7628499962 13.4720001559  

