1   
      1.000000000000
     13.599656105042        0.000000000000        0.000000000000
      0.000000000000       13.599638938904        0.000000000000
      0.000000000000        0.000000000000       13.599732398987
C
72 
Direct
      0.490635216236       0.064878486097       0.564875841141 
      0.490649163723       0.139419883490       0.639401555061 
      0.490626364946       0.203171581030       0.703171133995 
     -0.009347295389       0.416366934776       0.564909636974 
      0.990598559380       0.341825276613       0.639416277409 
      0.990561842918       0.278049290180       0.703167498112 
      0.490643262863       0.416405171156       0.916415095329 
      0.490601360798       0.341898798943       0.841854810715 
      0.490582257509       0.278154432774       0.778081536293 
     -0.009366045706       0.064891502261       0.916378319263 
     -0.009365677834       0.139388263226       0.841862142086 
      0.990613281727       0.203154653311       0.778096139431 
      0.564879715443       0.490633606911       0.064873926342 
      0.639399945736       0.490657150745       0.139420390129 
      0.703175902367       0.490623295307       0.203165769577 
      0.564911365509      -0.009348042309       0.416362583637 
      0.639421343803       0.990607202053       0.341824352741 
      0.703169226646       0.990555703640       0.278045177460 
      0.916420280933       0.490644633770       0.416401565075 
      0.841859519482       0.490602731705       0.341895699501 
      0.778085887432       0.490582138300       0.278151780367 
      0.916376173496      -0.009363410994       0.064887382090 
      0.841859519482      -0.009362380952       0.139383628964 
      0.778100550175       0.990614533424       0.203151047230 
      0.064876638353       0.564879715443       0.490630984306 
      0.139421179891       0.639402270317       0.490648627281 
      0.203169852495       0.703175306320       0.490622133017 
      0.416368603706       0.564914286137      -0.009349668398 
      0.341818958521       0.639414012432       0.990593016148 
      0.278048932552       0.703171551228       0.990563631058 
      0.416403919458       0.916421413422       0.490642726421 
      0.341898351908       0.841860592365       0.490599364042 
      0.278154820204       0.778086841106       0.490579515696 
      0.064887821674       0.916377305984      -0.009366875514 
      0.139403522015       0.841882646084       0.990600347519 
      0.203147038817       0.778094232082       0.990622460842 
      0.490641832352       0.916421413422       0.416402310133 
      0.490601360798       0.841860592365       0.341894984245 
      0.490582257509       0.778079509735       0.278151065111 
     -0.009345015511       0.564914286137       0.416364789009 
      0.990583837032       0.639411091805       0.341814070940 
      0.990569174290       0.703175306320       0.278050333261 
      0.490635931492       0.564878225327       0.064874805510 
      0.490638166666       0.639408886433       0.139410823584 
      0.490631520748       0.703170895576       0.203169450164 
     -0.009368840605       0.916377305984       0.064890101552 
     -0.009356780909       0.841860592365       0.139381423593 
      0.990613281727       0.778101503849       0.203153997660 
      0.416404664516       0.490645349026       0.916422486305 
      0.341897636652       0.490602731705       0.841854810715 
      0.278154075146       0.490582883358       0.778081536293 
      0.416368603706      -0.009343998507       0.564911842346 
      0.341810852289       0.990577816963       0.639403045177 
      0.278052628040       0.990577816963       0.703172624111 
      0.064875386655       0.490632146597       0.564877271652 
      0.139420434833       0.490652740002       0.639398634434 
      0.203169107437       0.490624785423       0.703171133995 
      0.064890757203       0.990629255772       0.916378319263 
      0.139393970370       0.990621924400       0.841869473457 
      0.203151464462       0.990621924400       0.778096139431 
      0.916420280933       0.416405171156       0.490639805794 
      0.841859519482       0.341898053885       0.490598618984 
      0.778078496456       0.278153717518       0.490579515696 
      0.564912080765       0.416365444660      -0.009352095425 
      0.639414668083       0.341820865870       0.990585625172 
      0.703172922134       0.278050750494       0.990563631058 
      0.564879715443       0.064876429737       0.490629523993 
      0.639402925968       0.139418408275       0.490645676851 
      0.703172922134       0.203170835972       0.490623623133 
      0.916383445263       0.064892016351      -0.009370992891 
      0.841859519482       0.139385312796      -0.009363346733 
      0.778100550175       0.203156128526       0.990607738495 
