&CONTROL
   calculation      = 'relax'
   restart_mode     = 'from_scratch'
   nstep            = 1000
   tprnfor          = .true.
   etot_conv_thr    = 0.0001
   forc_conv_thr    = 0.001
/
&SYSTEM
   tot_magnetization = 0
   ecutwfc          = 50
   ecutrho          = 400
   occupations      = 'smearing'
   degauss          = 0.0001
   smearing         = 'gaussian'
   nspin            = 2
   input_dft        = 'pbe'
   ntyp             = 1
   nat              = 320
   ibrav            = 0
/
&ELECTRONS
   electron_maxstep = 100
   scf_must_converge = .false.
   conv_thr         = 1e-06
   mixing_mode      = 'plain'
   mixing_beta      = 0.3
   diagonalization  = 'david'
/
&IONS
   ion_dynamics     = 'bfgs'
   bfgs_ndim        = 1
/
&CELL
/
&FCP
/
&RISM
/
ATOMIC_SPECIES
C  12.011 C.pbe-n-kjpaw_psl.1.0.0.UPF

K_POINTS gamma

CELL_PARAMETERS angstrom
19.01770210266100 0.00000000000000 0.00000000000000
0.00000000000000 19.01774787902800 0.00000000000000
0.00000000000000 0.00000000000000 19.01770210266100

ATOMIC_POSITIONS angstrom
C  17.5618005249 6.1169197160 4.4330101509  
C  16.2247997128 5.6998603314 4.6638899828  
C  9.9307207569 9.9307299244 0.4218729999  
C  6.1169197284 17.5617997221 4.4330101509  
C  7.4538797330 17.9789004811 4.6638899828  
C  13.7480006300 13.7479997156 0.4218729999  
C  17.5618005249 17.5617997221 0.2280169973  
C  16.2247997128 17.9789004811 -0.0028683598  
C  9.9307207569 13.7479997156 4.2391501454  
C  6.1169197284 6.1169197160 0.2280169973  
C  7.4538797330 5.6998603314 -0.0028683598  
C  13.7480006300 9.9307299244 4.2391501454  
C  4.4330101509 17.5617997221 6.1169197284  
C  4.6638899828 16.2248988445 5.6998602142  
C  0.4218729999 9.9307299244 9.9307207569  
C  4.4330101509 6.1169197160 17.5618005249  
C  4.6638899828 7.4538699029 17.9789014135  
C  0.4218729999 13.7479997156 13.7480006300  
C  0.2280169973 17.5617997221 17.5618005249  
C  -0.0028714599 16.2248988445 17.9789014135  
C  4.2391501454 9.9307299244 13.7480006300  
C  0.2280169973 6.1169197160 6.1169197284  
C  -0.0028714599 7.4538699029 5.6998602142  
C  4.2391501454 13.7479997156 9.9307207569  
C  6.1169299303 4.4330001341 17.5618005249  
C  5.6998602142 4.6638799550 16.2247997128  
C  9.9307207569 0.4218530094 9.9307207569  
C  17.5618005249 4.4330001341 6.1169299303  
C  17.9789014135 4.6638799550 7.4538797330  
C  13.7480006300 0.4218530094 13.7480006300  
C  17.5618005249 0.2279900045 17.5618005249  
C  17.9789014135 -0.0028939100 16.2247997128  
C  13.7480006300 4.2391399454 9.9307207569  
C  6.1169299303 0.2279900045 6.1169299303  
C  5.6998602142 -0.0028939100 7.4538797330  
C  9.9307207569 4.2391399454 13.7480006300  
C  12.8073999372 1.3624800540 14.4913001630  
C  13.2243999404 2.6994300993 14.2603996439  
C  8.9935796385 8.9935701139 18.5023989506  
C  1.3625000121 12.8074001594 14.4913001630  
C  0.9454370264 11.4703995297 14.2603996439  
C  5.1763003322 5.1762901208 18.5023989506  
C  1.3625000121 1.3624800540 18.6963006138  
C  0.9454370264 2.6994300993 18.9271999993  
C  5.1763003322 8.9935701139 14.6850998073  
C  12.8073999372 12.8074001594 18.6963006138  
C  13.2243999404 11.4703995297 18.9271999993  
C  8.9935796385 5.1762901208 14.6850998073  
C  1.3625000121 14.4912999042 12.8073999372  
C  2.6994499565 14.2603999629 13.2243999404  
C  8.9935796385 18.5023992783 8.9935796385  
C  12.8073999372 14.4912999042 1.3625000121  
C  11.4704002586 14.2603999629 0.9454380183  
C  5.1763003322 18.5023992783 5.1763003322  
C  1.3625000121 18.6963002747 1.3625000121  
C  2.6994499565 18.9272002160 0.9454380183  
C  8.9935796385 14.6851997670 5.1763003322  
C  12.8073999372 18.6963002747 12.8073999372  
C  11.4704002586 18.9272002160 13.2243999404  
C  5.1763003322 14.6851997670 8.9935796385  
C  14.4913001630 12.8074001594 1.3625000121  
C  14.2603996439 13.2244000328 2.6994499565  
C  18.5023989506 8.9935701139 8.9935796385  
C  14.4913001630 1.3624800540 12.8073999372  
C  14.2603996439 0.9454209529 11.4704002586  
C  18.5023989506 5.1762901208 5.1763003322  
C  18.6963006138 1.3624800540 1.3625000121  
C  18.9271999993 0.9454209529 2.6994499565  
C  14.6850998073 5.1762901208 8.9935796385  
C  18.6963006138 12.8074001594 12.8073999372  
C  18.9271999993 13.2244000328 11.4704002586  
C  14.6850998073 8.9935701139 5.1763003322  
C  10.8712999123 3.2985100668 14.4913001630  
C  10.4542999091 1.9615600216 14.2603996439  
C  14.6850998073 14.6851997670 18.5023989506  
C  3.2985199805 10.8713997605 14.4913001630  
C  3.7155899800 12.2082995046 14.2603996439  
C  18.5023989506 18.5023992783 18.5023989506  
C  3.2985199805 3.2985100668 18.6963006138  
C  3.7155899800 1.9615600216 18.9271999993  
C  18.5023989506 14.6851997670 14.6850998073  
C  10.8712999123 10.8713997605 18.6963006138  
C  10.4542999091 12.2082995046 18.9271999993  
C  14.6850998073 18.5023992783 14.6850998073  
C  3.2985199805 9.1874399377 12.8073999372  
C  1.9615700361 9.4183194752 13.2243999404  
C  10.8713996641 9.1874399377 1.3625000121  
C  12.2082995909 9.4183194752 0.9454380183  
C  3.2985199805 4.9824299321 1.3625000121  
C  1.9615700361 4.7515401927 0.9454380183  
C  10.8713996641 4.9824299321 12.8073999372  
C  12.2082995909 4.7515401927 13.2243999404  
C  9.1874302922 10.8713997605 1.3625000121  
C  9.4183194759 10.4543001350 2.6994499565  
C  9.1874302922 3.2985100668 12.8073999372  
C  9.4183194759 3.7155700182 11.4704002586  
C  4.9824400433 3.2985100668 1.3625000121  
C  4.7515602114 3.7155700182 2.6994499565  
C  4.9824400433 10.8713997605 12.8073999372  
C  4.7515602114 10.4543001350 11.4704002586  
C  10.8712999123 1.3624800540 9.1874302922  
C  10.4542999091 2.6994300993 9.4183194759  
C  3.2985199805 12.8074001594 9.1874302922  
C  3.7155899800 11.4703995297 9.4183194759  
C  3.2985199805 1.3624800540 4.9824400433  
C  3.7155899800 2.6994300993 4.7515502929  
C  10.8712999123 12.8074001594 4.9824400433  
C  10.4542999091 11.4703995297 4.7515502929  
C  3.2985199805 14.4912999042 10.8713996641  
C  1.9615700361 14.2603999629 10.4542999091  
C  10.8713996641 14.4912999042 3.2985199805  
C  12.2082995909 14.2603999629 3.7155899800  
C  3.2985199805 18.6963002747 3.2985199805  
C  1.9615700361 18.9272002160 3.7155899800  
C  10.8713996641 18.6963002747 10.8713996641  
C  12.2082995909 18.9272002160 10.4542999091  
C  9.1874302922 12.8074001594 3.2985199805  
C  9.4183194759 13.2244000328 1.9615700361  
C  9.1874302922 1.3624800540 10.8712999123  
C  9.4183194759 0.9454209529 12.2082995909  
C  4.9824400433 1.3624800540 3.2985199805  
C  4.7515602114 0.9454209529 1.9615700361  
C  4.9824400433 12.8074001594 10.8712999123  
C  4.7515602114 13.2244000328 12.2082995909  
C  8.0529500404 8.0529405187 0.2280169973  
C  6.7160002377 8.4700095384 -0.0028683598  
C  0.4218729999 4.2391399454 4.2391501454  
C  15.6258002519 15.6258004568 0.2280169973  
C  16.9627001786 15.2086996978 -0.0028683598  
C  4.2391501454 0.4218530094 4.2391501454  
C  8.0529500404 15.6258004568 4.4330101509  
C  6.7160002377 15.2086996978 4.6638899828  
C  0.4218729999 0.4218530094 0.4218729999  
C  15.6258002519 8.0529405187 4.4330101509  
C  16.9627001786 8.4700095384 4.6638899828  
C  4.2391501454 4.2391399454 0.4218729999  
C  13.9419000261 15.6258004568 17.5618005249  
C  14.1726996598 16.9627002009 17.9789014135  
C  13.9419000261 8.0529405187 6.1169197284  
C  14.1726996598 6.7159903318 5.6998602142  
C  9.7368701031 15.6258004568 6.1169197284  
C  9.5059797860 16.9627002009 5.6998602142  
C  9.7368701031 8.0529405187 17.5618005249  
C  9.5059797860 6.7159903318 17.9789014135  
C  15.6258002519 9.7368606673 6.1169299303  
C  15.2087004968 9.5059794295 7.4538797330  
C  8.0529500404 9.7368606673 17.5618005249  
C  8.4700095546 9.5059794295 16.2247997128  
C  8.0529500404 13.9419007120 6.1169299303  
C  8.4700095546 14.1727995197 7.4538797330  
C  15.6258002519 13.9419007120 17.5618005249  
C  15.2087004968 14.1727995197 16.2247997128  
C  12.8073999372 3.2985100668 9.1874302922  
C  13.2243999404 1.9615600216 9.4183194759  
C  1.3625000121 10.8713997605 9.1874302922  
C  0.9454370264 12.2082995046 9.4183194759  
C  1.3625000121 3.2985100668 4.9824400433  
C  0.9454370264 1.9615600216 4.7515502929  
C  12.8073999372 10.8713997605 4.9824400433  
C  13.2243999404 12.2082995046 4.7515502929  
C  1.3625000121 9.1874399377 10.8713996641  
C  2.6994499565 9.4183194752 10.4542999091  
C  12.8073999372 9.1874399377 3.2985199805  
C  11.4704002586 9.4183194752 3.7155899800  
C  1.3625000121 4.9824299321 3.2985199805  
C  2.6994499565 4.7515401927 3.7155899800  
C  12.8073999372 4.9824299321 10.8713996641  
C  11.4704002586 4.7515401927 10.4542999091  
C  14.4913001630 10.8713997605 3.2985199805  
C  14.2603996439 10.4543001350 1.9615700361  
C  14.4913001630 3.2985100668 10.8712999123  
C  14.2603996439 3.7155700182 12.2082995909  
C  18.6963006138 3.2985100668 3.2985199805  
C  18.9271999993 3.7155700182 1.9615700361  
C  18.6963006138 10.8713997605 10.8712999123  
C  18.9271999993 10.4543001350 12.2082995909  
C  17.5618005249 15.6258004568 13.9419000261  
C  16.2247997128 15.2086996978 14.1726996598  
C  6.1169197284 8.0529405187 13.9419000261  
C  7.4538797330 8.4700095384 14.1726996598  
C  17.5618005249 8.0529405187 9.7368701031  
C  16.2247997128 8.4700095384 9.5059797860  
C  6.1169197284 15.6258004568 9.7368701031  
C  7.4538797330 15.2086996978 9.5059797860  
C  4.4330101509 8.0529405187 15.6258002519  
C  4.6638899828 6.7159903318 15.2087004968  
C  4.4330101509 15.6258004568 8.0529500404  
C  4.6638899828 16.9627002009 8.4700095546  
C  0.2280169973 8.0529405187 8.0529500404  
C  -0.0028714599 6.7159903318 8.4700095546  
C  0.2280169973 15.6258004568 15.6258002519  
C  -0.0028714599 16.9627002009 15.2087004968  
C  6.1169299303 13.9419007120 8.0529500404  
C  5.6998602142 14.1727995197 6.7160002377  
C  17.5618005249 13.9419007120 15.6258002519  
C  17.9789014135 14.1727995197 16.9627001786  
C  17.5618005249 9.7368606673 8.0529500404  
C  17.9789014135 9.5059794295 6.7160002377  
C  6.1169299303 9.7368606673 15.6258002519  
C  5.6998602142 9.5059794295 16.9627001786  
C  8.0529500404 4.4330001341 15.6258002519  
C  8.4700095546 4.6638799550 16.9627001786  
C  15.6258002519 4.4330001341 8.0529500404  
C  15.2087004968 4.6638799550 6.7160002377  
C  15.6258002519 0.2279900045 15.6258002519  
C  15.2087004968 -0.0028939100 16.9627001786  
C  8.0529500404 0.2279900045 8.0529500404  
C  8.4700095546 -0.0028939100 6.7160002377  
C  15.6258002519 6.1169197160 9.7368701031  
C  16.9627001786 5.6998603314 9.5059797860  
C  8.0529500404 17.5617997221 9.7368701031  
C  6.7160002377 17.9789004811 9.5059797860  
C  15.6258002519 17.5617997221 13.9419000261  
C  16.9627001786 17.9789004811 14.1726996598  
C  8.0529500404 6.1169197160 13.9419000261  
C  6.7160002377 5.6998603314 14.1726996598  
C  9.7368701031 17.5617997221 8.0529500404  
C  9.5059797860 16.2248988445 8.4700095546  
C  9.7368701031 6.1169197160 15.6258002519  
C  9.5059797860 7.4538699029 15.2087004968  
C  13.9419000261 17.5617997221 15.6258002519  
C  14.1726996598 16.2248988445 15.2087004968  
C  13.9419000261 6.1169197160 8.0529500404  
C  14.1726996598 7.4538699029 8.4700095546  
C  2.6994499565 13.2244000328 14.2603996439  
C  11.4704002586 0.9454209529 14.2603996439  
C  2.6994499565 0.9454209529 18.9271999993  
C  11.4704002586 13.2244000328 18.9271999993  
C  14.2603996439 2.6994300993 13.2243999404  
C  14.2603996439 11.4703995297 0.9454370264  
C  18.9271999993 2.6994300993 0.9454370264  
C  18.9271999993 11.4703995297 13.2243999404  
C  13.2243999404 14.2603999629 2.6994499565  
C  0.9454380183 14.2603999629 11.4704002586  
C  0.9454380183 18.9272002160 2.6994499565  
C  13.2243999404 18.9272002160 11.4704002586  
C  5.6998602142 16.2248988445 4.6638899828  
C  17.9789014135 7.4538699029 4.6638899828  
C  17.9789014135 16.2248988445 -0.0028713102  
C  5.6998602142 7.4538699029 -0.0028713102  
C  16.2247997128 4.6638799550 5.6998602142  
C  7.4538797330 4.6638799550 17.9789014135  
C  16.2247997128 -0.0028938901 17.9789014135  
C  7.4538797330 -0.0028938901 5.6998602142  
C  4.6638899828 5.6998603314 16.2247997128  
C  4.6638899828 17.9789004811 7.4538797330  
C  -0.0028685300 17.9789004811 16.2247997128  
C  -0.0028685300 5.6998603314 7.4538797330  
C  8.4700095546 16.9627002009 4.6638899828  
C  15.2087004968 6.7159903318 4.6638899828  
C  15.2087004968 16.9627002009 -0.0028713102  
C  8.4700095546 6.7159903318 -0.0028713102  
C  16.9627001786 9.5059794295 5.6998602142  
C  6.7160002377 9.5059794295 17.9789014135  
C  16.9627001786 14.1727995197 17.9789014135  
C  6.7160002377 14.1727995197 5.6998602142  
C  9.5059797860 8.4700095384 16.2247997128  
C  9.5059797860 15.2086996978 7.4538797330  
C  14.1726996598 15.2086996978 16.2247997128  
C  14.1726996598 8.4700095384 7.4538797330  
C  8.4700095546 16.2248988445 9.5059797860  
C  15.2087004968 7.4538699029 9.5059797860  
C  15.2087004968 16.2248988445 14.1726996598  
C  8.4700095546 7.4538699029 14.1726996598  
C  16.9627001786 4.6638799550 8.4700095546  
C  6.7160002377 4.6638799550 15.2087004968  
C  16.9627001786 -0.0028938901 15.2087004968  
C  6.7160002377 -0.0028938901 8.4700095546  
C  9.5059797860 5.6998603314 16.9627001786  
C  9.5059797860 17.9789004811 6.7160002377  
C  14.1726996598 17.9789004811 16.9627001786  
C  14.1726996598 5.6998603314 6.7160002377  
C  12.2082995909 10.4543001350 18.9271999993  
C  1.9615700361 3.7155700182 18.9271999993  
C  12.2082995909 3.7155700182 14.2603996439  
C  1.9615700361 10.4543001350 14.2603996439  
C  4.7515502929 1.9615600216 0.9454370264  
C  4.7515502929 12.2082995046 13.2243999404  
C  9.4183194759 1.9615600216 13.2243999404  
C  9.4183194759 12.2082995046 0.9454370264  
C  3.7155899800 9.4183194752 11.4704002586  
C  10.4542999091 9.4183194752 2.6994499565  
C  10.4542999091 4.7515401927 11.4704002586  
C  3.7155899800 4.7515401927 2.6994499565  
C  5.6998602142 16.9627002009 9.5059797860  
C  17.9789014135 6.7159903318 9.5059797860  
C  17.9789014135 16.9627002009 14.1726996598  
C  5.6998602142 6.7159903318 14.1726996598  
C  16.2247997128 9.5059794295 8.4700095546  
C  7.4538797330 9.5059794295 15.2087004968  
C  16.2247997128 14.1727995197 15.2087004968  
C  7.4538797330 14.1727995197 8.4700095546  
C  4.6638899828 8.4700095384 16.9627001786  
C  4.6638899828 15.2086996978 6.7160002377  
C  -0.0028685300 15.2086996978 16.9627001786  
C  -0.0028685300 8.4700095384 6.7160002377  
C  2.6994499565 3.7155700182 4.7515602114  
C  11.4704002586 10.4543001350 4.7515602114  
C  2.6994499565 10.4543001350 9.4183194759  
C  11.4704002586 3.7155700182 9.4183194759  
C  14.2603996439 12.2082995046 3.7155899800  
C  14.2603996439 1.9615600216 10.4542999091  
C  18.9271999993 12.2082995046 10.4542999091  
C  18.9271999993 1.9615600216 3.7155899800  
C  13.2243999404 4.7515401927 12.2082995909  
C  0.9454380183 4.7515401927 1.9615700361  
C  0.9454380183 9.4183194752 12.2082995909  
C  13.2243999404 9.4183194752 1.9615700361  
C  10.4542999091 14.2603999629 1.9615700361  
C  3.7155899800 14.2603999629 12.2082995909  
C  3.7155899800 18.9272002160 1.9615700361  
C  10.4542999091 18.9272002160 12.2082995909  
C  1.9615700361 13.2244000328 9.4183194759  
C  12.2082995909 0.9454209529 9.4183194759  
C  1.9615700361 0.9454209529 4.7515602114  
C  12.2082995909 13.2244000328 4.7515602114  
C  9.4183194759 2.6994300993 10.4542999091  
C  9.4183194759 11.4703995297 3.7155899800  
C  4.7515502929 2.6994300993 3.7155899800  
C  4.7515502929 11.4703995297 10.4542999091  

