&CONTROL
   calculation      = 'relax'
   restart_mode     = 'from_scratch'
   nstep            = 1000
   tprnfor          = .true.
   etot_conv_thr    = 0.0001
   forc_conv_thr    = 0.001
/
&SYSTEM
   tot_magnetization = 0
   ecutwfc          = 50
   ecutrho          = 400
   occupations      = 'smearing'
   degauss          = 0.0001
   smearing         = 'gaussian'
   nspin            = 2
   input_dft        = 'pbe'
   starting_magnetization(1) = 0.0
   starting_magnetization(2) = 0.0
   starting_magnetization(3) = 0.0
   starting_magnetization(4) = 0.0
   ntyp             = 4
   nat              = 51
   ibrav            = 0
/
&ELECTRONS
   electron_maxstep = 100
   scf_must_converge = .false.
   conv_thr         = 1e-06
   mixing_mode      = 'plain'
   mixing_beta      = 0.3
   diagonalization  = 'david'
/
&IONS
   ion_dynamics     = 'bfgs'
   bfgs_ndim        = 1
/
&CELL
/
&FCP
/
&RISM
/
ATOMIC_SPECIES
C  12.011 C.pbe-n-kjpaw_psl.1.0.0.UPF
Pd  106.42 Pd_ONCV_PBE-1.0.oncvpsp.upf
O  15.999 O.pbe-n-kjpaw_psl.0.1.UPF
H  1.008 H.pbe-rrkjus_psl.1.0.0.UPF

K_POINTS gamma

CELL_PARAMETERS angstrom
13.55999980900000 0.00000000000000 0.00000000000000
-6.69000218600000 11.58741307600000 0.00000000000000
0.00000000000000 0.00000000000000 19.99999627700000

ATOMIC_POSITIONS angstrom
C  1.8834955570 2.0222425190 10.0812163610  
C  2.5762906390 0.8579450440 10.1267719530  
C  4.0565611830 0.8545284530 10.1232125670  
C  4.7680139180 2.0155118240 10.0742271830  
C  4.0443934250 3.3217128860 10.0092395230  
C  2.6186415090 3.3208002640 10.0142973840  
C  1.3494353920 4.0069654670 10.3670011520  
C  0.6187087140 2.7383181110 10.3287192000  
C  0.6817512230 5.1718988170 10.5715823110  
C  -0.7812766070 5.1747543730 10.6753555490  
C  -1.4749592270 4.0020939830 10.6107277240  
C  -0.7462849550 2.7343471580 10.4577411810  
C  -1.4407152960 7.8235184950 10.6249103010  
C  -0.7651506220 6.6472640970 10.6721738880  
C  0.7031001730 6.6383707670 10.5848141390  
C  1.4001741000 7.8035804670 10.4774598780  
C  0.6695656800 9.0804430810 10.4271309110  
C  -0.6954464440 9.0866734850 10.4934078180  
C  -1.9783052620 9.8134512510 10.4537118240  
C  -2.7211828120 8.5541647890 10.5899531240  
C  -2.6562908240 10.9845150760 10.3112281470  
C  -4.1255011460 10.9876057820 10.3170978910  
C  -4.8219547080 9.8203765070 10.4675424000  
C  -4.0905458870 8.5525655110 10.5958388160  
C  8.6868681350 2.0145958830 10.4045821080  
C  9.3623764270 0.8449339670 10.3102660600  
C  10.8314005120 0.8421372060 10.3181778320  
C  11.5265368480 2.0082029910 10.4170190190  
C  10.7952663640 3.2782731960 10.5481167010  
C  9.4301802370 3.2763486420 10.5417204910  
C  8.1468156930 3.9971278890 10.5904474450  
C  7.4065882060 2.7372168340 10.4332813260  
C  7.4718382780 5.1725633940 10.6539098380  
C  6.0091642430 5.1755744480 10.5474495760  
C  5.3230618730 4.0135683550 10.3440394180  
C  6.0418258820 2.7369433380 10.3048484660  
C  5.3404355620 7.8103883600 10.5012824440  
C  6.0201384980 6.6412847350 10.5876507990  
C  7.4885268460 6.6445557100 10.6731652620  
C  8.1823869010 7.8184590530 10.6384878070  
C  7.4483472660 9.0900374500 10.5200548930  
C  6.0829902680 9.0799468340 10.4631580160  
C  4.8009863420 9.7926978200 10.3408589220  
C  4.0585948750 8.5258683160 10.3873074950  
C  4.1232823700 10.9638953530 10.2712241200  
C  2.6554990870 10.9665010710 10.2609424880  
C  1.9585738940 9.7976523470 10.3160218780  
C  2.6891054990 8.5233398370 10.3737242780  
Pd  3.3247553730 3.7440831870 8.0802220880  
O  3.3247553730 3.7440831870 5.8802220880  
H  3.3247553730 3.7440831870 6.8472220880  

