&CONTROL
   calculation      = 'relax'
   restart_mode     = 'from_scratch'
   nstep            = 1000
   tprnfor          = .true.
   etot_conv_thr    = 0.0001
   forc_conv_thr    = 0.001
/
&SYSTEM
   tot_magnetization = 0
   ecutwfc          = 50
   ecutrho          = 400
   occupations      = 'smearing'
   degauss          = 0.0001
   smearing         = 'gaussian'
   nspin            = 2
   input_dft        = 'pbe'
   ntyp             = 1
   nat              = 32
   ibrav            = 0
/
&ELECTRONS
   electron_maxstep = 100
   scf_must_converge = .false.
   conv_thr         = 1e-06
   mixing_mode      = 'plain'
   mixing_beta      = 0.3
   diagonalization  = 'david'
/
&IONS
   ion_dynamics     = 'bfgs'
   bfgs_ndim        = 1
/
&CELL
/
&FCP
/
&RISM
/
ATOMIC_SPECIES
C  12.011 C.pbe-n-kjpaw_psl.1.0.0.UPF

K_POINTS gamma

CELL_PARAMETERS angstrom
7.09725093841600 0.00000000000000 0.00000000000000
0.00000000000000 7.09720087051400 0.00000000000000
0.00000000000000 0.00000000000000 24.58778381347700

ATOMIC_POSITIONS angstrom
C  4.6474097688 5.2320701729 6.4542401983  
C  3.3389999452 1.6319799481 13.3186002883  
C  3.3880300779 5.2113901172 8.6059103125  
C  2.1625500371 5.2321099374 6.4539097176  
C  4.6512800623 1.5812199844 18.1326994606  
C  3.3377399530 5.1815401239 11.2686002378  
C  3.3910101066 1.6019999800 15.9812997396  
C  2.1660599097 1.5812400781 18.1338997429  
C  3.3381098919 3.9387599794 11.9864994703  
C  6.9540801166 5.2317397895 5.1221298542  
C  3.3649800672 5.1939500186 9.8341200317  
C  3.3380999508 6.4230799558 11.9869002971  
C  -0.0740746068 3.9381601283 0.3074130228  
C  3.4041900019 5.2321399722 7.1713802778  
C  -0.1027600000 5.1939199838 2.4594199608  
C  -0.0740353973 6.4225101396 0.3069129968  
C  -0.0737007019 2.8745899303 24.2803987047  
C  3.4076099808 1.5813200300 17.4157997307  
C  -0.1003189963 1.6186999943 22.1287996695  
C  -0.0737038019 0.3895600103 24.2807006072  
C  3.3384698897 2.8753198619 12.6015994357  
C  -0.1396689999 1.5812899952 19.4659990954  
C  3.3671700889 1.6193699620 14.7530006222  
C  3.3384899836 0.3899760037 12.6010996844  
C  5.7143797404 1.5812199844 18.7481995201  
C  -0.0745412013 5.1810599892 1.0249799656  
C  -0.1232790010 1.6015800208 20.9004990864  
C  1.1018699798 1.5812400781 18.7479987403  
C  5.7108495624 5.2319496105 5.8391999539  
C  -0.0733511014 1.6313999792 23.5632000033  
C  -0.1266459956 5.2112001784 3.6876100783  
C  1.0980599680 5.2319999506 5.8402800614  

