&CONTROL
   calculation      = 'relax'
   restart_mode     = 'from_scratch'
   nstep            = 1000
   tprnfor          = .true.
   etot_conv_thr    = 0.0001
   forc_conv_thr    = 0.001
/
&SYSTEM
   tot_magnetization = 0
   ecutwfc          = 50
   ecutrho          = 400
   occupations      = 'smearing'
   degauss          = 0.0001
   smearing         = 'gaussian'
   nspin            = 2
   input_dft        = 'pbe'
   ntyp             = 1
   nat              = 64
   ibrav            = 0
/
&ELECTRONS
   electron_maxstep = 100
   scf_must_converge = .false.
   conv_thr         = 1e-06
   mixing_mode      = 'plain'
   mixing_beta      = 0.3
   diagonalization  = 'david'
/
&IONS
   ion_dynamics     = 'bfgs'
   bfgs_ndim        = 1
/
&CELL
/
&FCP
/
&RISM
/
ATOMIC_SPECIES
C  12.011 C.pbe-n-kjpaw_psl.1.0.0.UPF

K_POINTS gamma

CELL_PARAMETERS angstrom
14.18964099884000 0.00000000000000 0.00000000000000
0.00000000000000 14.18966579437300 0.00000000000000
0.00000000000000 0.00000000000000 14.18992900848400

ATOMIC_POSITIONS angstrom
C  0.7592350275 9.1931603299 9.1931997635  
C  0.0564257039 9.8958996189 9.8959597002  
C  2.0983100223 7.8540806165 9.1931803104  
C  2.8010800110 7.1512702828 9.8959106446  
C  0.7592959757 7.8540002683 7.8540402345  
C  0.0564975017 7.1512601335 7.1512701484  
C  2.0982599105 9.1931603299 7.8541002853  
C  2.8010599240 9.8958598677 7.1512701484  
C  9.1931603350 0.7592280023 9.1931997635  
C  9.8959000875 0.0564123957 9.8959597002  
C  9.1931603350 2.0982498333 7.8541002853  
C  9.8958501872 2.8010500177 7.1512701484  
C  7.8540000762 0.7592840345 7.8540402345  
C  7.1512594779 0.0564862024 7.1512701484  
C  7.8540804242 2.0982999452 9.1931693152  
C  7.1512594779 2.8010698933 9.8959106446  
C  9.1931400366 9.1931493349 0.7591310235  
C  9.8958797891 9.8958903154 0.0562986995  
C  7.8541201754 9.1931493349 2.0982299731  
C  7.1512797764 9.8958598677 2.8010099972  
C  7.8540102255 7.8540104175 0.7591559742  
C  7.1512594779 7.1512702828 0.0563481977  
C  9.1931400366 7.8541195219 2.0982299731  
C  9.8958594907 7.1512795863 2.8010099972  
C  4.3066202742 12.7405006592 4.3065799728  
C  3.6038699496 13.4432999978 3.6038001602  
C  5.6455999614 11.4013008464 4.3065702462  
C  6.3484403604 10.6985996171 3.6037900107  
C  5.6457200605 12.7405006592 5.6456701474  
C  6.3484602359 13.4432999978 6.3484300840  
C  4.3066600253 11.4013008464 5.6455897977  
C  3.6038699496 10.6985996171 6.3484199346  
C  12.7405003859 4.3066201878 4.3065799728  
C  13.4432003873 3.6038597546 3.6038001602  
C  11.4013003760 4.3066603619 5.6455897977  
C  10.6985995289 3.6038597546 6.3484199346  
C  12.7405003859 5.6457201997 5.6456701474  
C  13.4433001880 6.3484501852 6.3484300840  
C  11.4013003760 5.6455996775 4.3065702462  
C  10.6985995289 6.3484400360 3.6037900107  
C  4.3066101250 4.3065998893 12.7405999744  
C  3.6038500740 3.6038403019 13.4434005088  
C  4.3066300005 5.6456098267 11.4013998477  
C  3.6038598003 6.3484303096 10.6986999618  
C  5.6457001850 5.6456901749 12.7405999744  
C  6.3484403604 6.3484400360 13.4434005088  
C  5.6456096877 4.3066303371 11.4013998477  
C  6.3484302111 3.6038500282 10.6986999618  
C  12.7405003859 12.7405006592 12.7405999744  
C  13.4432003873 13.4432999978 13.4434005088  
C  12.7404005853 11.4013998015 11.4014996504  
C  13.4432003873 10.6987002637 10.6986999618  
C  11.4013993310 11.4013998015 12.7405001717  
C  10.6985995289 10.6985996171 13.4434005088  
C  11.4013993310 12.7404000125 11.4014996504  
C  10.6985995289 13.4432001970 10.6986999618  
C  2.0983100223 0.7592019948 2.0981900097  
C  2.8010599240 0.0564238995 2.8009700338  
C  0.7592099716 0.7591999861 0.7590399958  
C  0.0564407031 0.0564292979 0.0562802970  
C  0.7592120332 2.0982999452 2.0981900097  
C  0.0564357012 2.8010599555 2.8009700338  
C  2.0982899353 2.0982798581 0.7590900029  
C  2.8010499862 2.8010398685 0.0562967964  

