C 
 1.0000000000000000
    32.8083038330079972    0.0000000000000000    0.0000000000000000
     0.0000000000000000   17.7796649932860014    0.0000000000000000
     0.0000000000000000    0.0000000000000000   15.0000000000000000
 C  
  56
Cartesian
  6.1729597260611611 -0.3817289940819784  8.1182100413801361
 27.3726008748557668 -0.3817289940819784  8.1182100413801361
 22.5771003982736147  8.5080997271913983  8.1182100413801361
 10.9684998020691911  8.5080997271913983  8.1182100413801361
  5.3707598966634063 -0.3817289940819784  6.8817899586198630
 28.1748011931300582 -0.3817289940819784  6.8817899586198630
 21.7749000799993233  8.5080997271913983  6.8817899586198630
 11.7707001203434825  8.5080997271913983  6.8817899586198630
  3.9733801795108770 17.3978993715650851  6.8817899586198630
 29.5722014433267297 -0.3817289940819784  6.8817899586198630
 20.3774998298026446  8.5080997271913983  6.8817899586198630
 13.1680006386442585  8.5080997271913983  6.8817899586198630
  7.0432202163410240  0.8493130219947861  8.1182100413801361
 26.5023990504163187 16.1669004741095748  8.1182100413801361
 26.5023990504163187  0.8493139492754342  8.1182100413801361
  7.0432202163410240 16.1669004741095748  8.1182100413801361
 23.4473999991028137  9.7391505524520987  8.1182100413801361
 10.0982002012399885  7.2770600293340344  8.1182100413801361
 10.0982002012399885  9.7391399549361193  8.1182100413801361
 23.4473999991028137  7.2770600293340344  8.1182100413801361
  8.3081594029937644  3.3924699632979678  8.1182100413801361
 25.2373997312935572 13.6237003479558876  8.1182100413801361
 25.2373997312935572  3.3924699632979678  8.1182100413801361
  8.3081594029937644 13.6237003479558876  8.1182100413801361
 24.7122995863296779 12.2822998105575287  8.1182100413801361
  8.8332703033398445  4.7339102413412490  8.1182100413801361
  8.8332703033398445 12.2822998105575287  8.1182100413801361
 24.7122995863296779  4.7339102413412490  8.1182100413801361
  7.3969203493658329  1.4323599925381920  6.8817899586198630
 26.1487008728976527 15.5838002510870375  6.8817899586198630
 26.1487008728976527  1.4323599925381920  6.8817899586198630
  7.3969203493658329 15.5838002510870375  6.8817899586198630
 23.8011001321276225 10.3221999074441584  6.8817899586198630
  9.7445000682151779  6.6940096145850436  6.8817899586198630
  9.7445000682151779 10.3221999074441584  6.8817899586198630
 23.8011001321276225  6.6940096145850436  6.8817899586198630
  8.0350504608614042  2.7333101138542473  6.8817899586198630
 25.5105008512701161 14.2829002029793184  6.8817899586198630
 25.5105008512701161  2.7333101138542473  6.8817899586198630
  8.0350504608614042 14.2829002029793184  6.8817899586198630
 24.4392004218592582 11.6230999555518775  6.8817899586198630
  9.1063802232252762  5.3930703557197566  6.8817899586198630
  9.1063802232252762 11.6230999555518775  6.8817899586198630
 24.4392004218592582  5.3930703557197566  6.8817899586198630
  3.2359100146812523 17.3978993715650851  8.1182100413801361
 30.3096992299594774 17.3978993715650851  8.1182100413801361
 19.6400998195268492  8.5080997271913983  8.1182100413801361
 13.9055003808159530  8.5080997271913983  8.1182100413801361
  1.8102699948147114 17.3978993715650851  8.1182100413801361
 31.7353001393094871 17.3978993715650851  8.1182100413801361
 18.2143991783137515  8.5080997271913983  8.1182100413801361
 15.3312000442759828  8.5080997271913983  8.1182100413801361
  1.0832900117112869 17.3978993715650851  6.8817899586198630
 32.4622986998852952 17.3978993715650851  6.8817899586198630
 17.4874006177051307  8.5080997271913983  6.8817899586198630
 16.0580998507417760  8.5080997271913983  6.8817899586198630
