1   
      1.000000000000
     21.070899963379        0.000000000000        0.000000000000
      0.000000000000       21.070899963379        0.000000000000
      0.000000000000        0.000000000000       21.070899963379
C
144 
Direct
      0.909709572792       0.090285658836       0.090277113020 
      0.590292751789       0.409761816263       0.409756571054 
      0.590330719948       0.409672111273       0.090194061399 
      0.909643173218       0.090241044760       0.409690141678 
      0.590330719948       0.090192630887       0.409677833319 
      0.909633636475       0.409709602594       0.090251006186 
      0.909799754620       0.409730494022       0.409731447697 
      0.590292751789       0.090316027403       0.090301789343 
      0.409684926271       0.590306997299       0.590306997299 
      0.090299889445       0.909719109535       0.909704864025 
      0.090262398124       0.909662187099       0.590297520161 
      0.409758478403       0.590269029140       0.909733295441 
      0.090261928737       0.590302288532       0.909671664238 
      0.409749925137       0.909723818302       0.590269029140 
      0.409685373306       0.909700095654       0.909709572792 
      0.090120024979       0.590397179127       0.590397179127 
      0.981723666191       0.018120631576       0.018118638545 
      0.518031954765       0.481854110956       0.481854110956 
      0.518160104752       0.481839865446       0.018249766901 
      0.981742560863       0.018100032583       0.481830418110 
      0.518155395985       0.018248295411       0.481844604015 
      0.981742560863       0.481825649738       0.018104115501 
      0.981775760651       0.481849372387       0.481849372387 
      0.518160104752       0.018153425306       0.018218537793 
      0.481721252203       0.518107891083       0.518117427826 
      0.018106393516       0.981785297394       0.981785297394 
      0.018102928996       0.981737852097       0.518174350262 
      0.481844604015       0.518160104752       0.981761574745 
      0.018102739006       0.518174350262       0.981737852097 
      0.481844604015       0.981761574745       0.518160104752 
      0.481839865446       0.981846988201       0.981780588627 
      0.018249766901       0.518155395985       0.518155395985 
      0.784954607487       0.067335993052       0.067337416112 
      0.715085744858       0.432668775320       0.432667821646 
      0.715085744858       0.432620346546       0.067379653454 
      0.784926176071       0.067369215190       0.432640284300 
      0.715090513229       0.067375861108       0.432620346546 
      0.784940361977       0.432632178068       0.067361623049 
      0.784949898720       0.432642638683       0.432641237974 
      0.715071499348       0.067354500294       0.067334093153 
      0.932622671127       0.215084791183       0.067381553352 
      0.567332208157       0.284953176975       0.432633131742 
      0.932665407658       0.284957945347       0.432679682970 
      0.567365407944       0.215063422918       0.067354977131 
      0.567374885082       0.284930855036       0.067359723151 
      0.932598948479       0.215101882815       0.432609438896 
      0.567360639572       0.215030208230       0.432641237974 
      0.932674944401       0.284941792488       0.067305147648 
      0.932622671127       0.067381083965       0.215073391795 
      0.567332208157       0.432632178068       0.284936577082 
      0.567374885082       0.067353084683       0.284937053919 
      0.932613193989       0.432617992163       0.215087160468 
      0.932660698891       0.432676821947       0.284964561462 
      0.567365407944       0.067383453250       0.215069130063 
      0.567360639572       0.432641685009       0.215025931597 
      0.932679653168       0.067307993770       0.284954607487 
      0.285050481558       0.567341685295       0.567341685295 
      0.215073853731       0.932641685009       0.932641685009 
      0.215082406998       0.932622671127       0.567374885082 
      0.284955084324       0.567332208157       0.932674944401 
      0.215090468526       0.567374885082       0.932622671127 
      0.284956514835       0.932674944401       0.567336916924 
      0.284928977489       0.932646393776       0.932670235634 
      0.215143159032       0.567384421825       0.567384421825 
      0.432636946440       0.715062022209       0.567341685295 
      0.067355453968       0.784935653210       0.932622671127 
      0.432638406754       0.784945070744       0.932665407658 
      0.067370638251       0.715066730976       0.567389190197 
      0.067369215190       0.784935653210       0.567346453667 
      0.432649761438       0.715062022209       0.932651221752 
      0.067311786115       0.715076208115       0.932655930519 
      0.432647407055       0.784949898720       0.567379653454 
      0.432636946440       0.567341685295       0.715085744858 
      0.067356400192       0.932622671127       0.784945070744 
      0.067372538149       0.567351222038       0.784926176071 
      0.432656407356       0.932660698891       0.715052545071 
      0.432639330626       0.932636976242       0.784949898720 
      0.067369215190       0.567389190197       0.715071499348 
      0.067307524383       0.932660698891       0.715062022209 
      0.432652145624       0.567379653454       0.784926176071 
      0.840320110321       0.078270979226       0.078276202083 
      0.659753501415       0.421665906906       0.421668261290 
      0.659668087959       0.421734690666       0.078155659139 
      0.840334296227       0.078207857907       0.421713382006 
      0.659672856331       0.078145690262       0.421729981899 
      0.840334296227       0.421705782413       0.078208334744 
      0.840291559696       0.421722829342       0.421726197004 
      0.659691810608       0.078269556165       0.078242979944 
      0.921730875969       0.159700348973       0.078246302903 
      0.578233480453       0.340324342251       0.421781688929 
      0.921783149242       0.340331465006       0.421697676182 
      0.578261971474       0.159691810608       0.078247256577 
      0.578276216984       0.340351879597       0.078167043626 
      0.921759426594       0.159722179174       0.421776980162 
      0.578261971474       0.159667119384       0.421743243933 
      0.921673953533       0.340291589499       0.078235857189 
      0.921730875969       0.078244403005       0.159693226218 
      0.578228712082       0.421783119440       0.340313911438 
      0.578280985355       0.078147113323       0.340341895819 
      0.921745181084       0.421753197908       0.159717440605 
      0.921787858009       0.421701014042       0.340324819088 
      0.578304648399       0.078313224018       0.159714102745 
      0.578271448612       0.421730905771       0.159673288465 
      0.921678781509       0.078228265047       0.340295374393 
      0.340452015400       0.578257203102       0.578257203102 
      0.159739255905       0.921664476395       0.921659767628 
      0.159700825810       0.921735703945       0.578276216984 
      0.340314358473       0.578266680241       0.921754598618 
      0.159717440605       0.578276216984       0.921740412712 
      0.340335249901       0.921754598618       0.578266680241 
      0.340308666229       0.921740412712       0.921764135361 
      0.159762993455       0.578186035156       0.578186035156 
      0.421698629856       0.659696578979       0.578243017197 
      0.078253895044       0.840310573578       0.921778440475 
      0.421732336283       0.840334296227       0.921764135361 
      0.078102022409       0.659639596939       0.578314185143 
      0.078223519027       0.840329527855       0.578290402889 
      0.421752750874       0.659687042236       0.921773612499 
      0.078246302903       0.659710764885       0.921692967415 
      0.421697676182       0.840301096439       0.578295171261 
      0.421698629856       0.578243017197       0.659706056118 
      0.078250572085       0.921783149242       0.840324819088 
      0.078217826784       0.578285694122       0.840310573578 
      0.421748459339       0.921787858009       0.659687042236 
      0.421681553125       0.921692967415       0.840305805206 
      0.078104875982       0.578318953514       0.659644305706 
      0.078253895044       0.921688199043       0.659710764885 
      0.421694368124       0.578304648399       0.840296268463 
      0.948901057243       0.051190026104       0.051188606769 
      0.551219940186       0.449006438255       0.448995977640 
      0.551134467125       0.448859810829       0.051296815276 
      0.948882043362       0.051288269460       0.448930501938 
      0.551129758358       0.051292542368       0.448861718178 
      0.948877394199       0.448925733566       0.051284950227 
      0.948673307896       0.448896825314       0.448895365000 
      0.551106035709       0.051075655967       0.051295861602 
      0.448958069086       0.551196157932       0.551186740398 
      0.051294438541       0.948896348476       0.948896348476 
      0.051302980632       0.948886871338       0.551082313061 
      0.448891609907       0.551120281219       0.948668539524 
      0.051294438541       0.551082313061       0.948886871338 
      0.448885411024       0.948668539524       0.551120281219 
      0.448902040720       0.948915302753       0.948701739311 
      0.051262643188       0.551134467125       0.551134467125 
