 H 
 1.0000000000000000
    21.8842360088160319    0.0000000000000000    0.0000000000000000
     0.0000000000000000   21.8855325844777546    0.0000000000000000
     0.0000000000000000    0.0000000000000000   21.8847942508909661
 144
Cartesian
 19.4663000000000004  1.6044200000000000  1.6043700000000001
 12.5469000000000008  8.5242199999999997  8.5239300000000000
 12.5465000000000000  8.5236199999999993  1.6044200000000000
 19.4663000000000004  1.6049100000000001  8.5244000000000000
 12.5465999999999998  1.6042600000000000  8.5237900000000000
 19.4663000000000004  8.5239399999999996  1.6046300000000000
 19.4662000000000006  8.5237900000000000  8.5239799999999999
 12.5469000000000008  1.6039800000000000  1.6047199999999999
  8.5240100000000005 12.5469000000000008 12.5470000000000006
  1.6044400000000001 19.4663000000000004 19.4664999999999999
  1.6048000000000000 19.4664999999999999 12.5465999999999998
  8.5244700000000009 12.5472999999999999 19.4662000000000006
  1.6046499999999999 12.5472000000000001 19.4664999999999999
  8.5240200000000002 19.4665999999999997 12.5467999999999993
  8.5241000000000007 19.4667999999999992 19.4664000000000001
  1.6048899999999999 12.5469000000000008 12.5466999999999995
 21.0482000000000014  0.0234943000000000  0.0223278000000000
 10.9651999999999994 10.1056000000000008 10.1056000000000008
 10.9648000000000003 10.1060999999999996  0.0238013000000000
 21.0482000000000014  0.0239570000000000 10.1066000000000003
 10.9651999999999994  0.0217189000000000 10.1047999999999991
 21.0483000000000011 10.1051000000000002  0.0230257000000000
 21.0472000000000001 10.1057000000000006 10.1059000000000001
 10.9654000000000007  0.0229467000000000  0.0224233000000000
 10.1053999999999995 10.9649999999999999 10.9654000000000007
  0.0227438000000000 21.0473999999999997 21.0485000000000007
  0.0228620000000000 21.0471000000000004 10.9643999999999995
 10.1061999999999994 10.9649000000000001 21.0469000000000008
  0.0227013000000000 10.9657999999999998 21.0481000000000016
 10.1056000000000008 21.0490999999999993 10.9661000000000008
 10.1056000000000008 21.0478999999999985 21.0486000000000004
  0.0238842000000000 10.9650999999999996 10.9646000000000008
 16.7533999999999992  1.2753399999999999  1.2756799999999999
 15.2599000000000000  8.8529999999999998  8.8528599999999997
 15.2596000000000007  8.8523200000000006  1.2756300000000000
 16.7532999999999994  1.2749699999999999  8.8531600000000008
 15.2596000000000007  1.2753399999999999  8.8533899999999992
 16.7531999999999996  8.8524899999999995  1.2756799999999999
 16.7533999999999992  8.8530099999999994  8.8528900000000004
 15.2599000000000000  1.2754099999999999  1.2757799999999999
 19.7951000000000015  4.3174299999999999  1.2758900000000000
 12.2180000000000000  5.8111499999999996  8.8531099999999991
 19.7948999999999984  5.8107499999999996  8.8528400000000005
 12.2175999999999991  4.3169399999999998  1.2755700000000001
 12.2175999999999991  5.8105599999999997  1.2753300000000001
 19.7945999999999991  4.3173700000000004  8.8527000000000005
 12.2180000000000000  4.3174400000000004  8.8534000000000006
 19.7951000000000015  5.8109799999999998  1.2757300000000000
 19.7950000000000017  1.2753399999999999  4.3174799999999998
 12.2179000000000002  8.8524899999999995  5.8109200000000003
 12.2180999999999997  1.2756099999999999  5.8111499999999996
 19.7950000000000017  8.8529099999999996  4.3175499999999998
 19.7951000000000015  8.8529499999999999  5.8110700000000000
 12.2178000000000004  1.2753000000000001  4.3177099999999999
 12.2179000000000002  8.8522900000000000  4.3174000000000001
 19.7948999999999984  1.2751500000000000  5.8112000000000004
  5.8110799999999996 12.2180999999999997 12.2180000000000000
  4.3174700000000001 19.7956000000000003 19.7951000000000015
  4.3177300000000001 19.7954000000000008 12.2179000000000002
  5.8113799999999998 12.2185000000000006 19.7954000000000008
  4.3177500000000002 12.2182999999999993 19.7952000000000012
  5.8112000000000004 19.7953000000000010 12.2179000000000002
  5.8110799999999996 19.7957000000000001 19.7951000000000015
  4.3176399999999999 12.2181999999999995 12.2180999999999997
  8.8530499999999996 15.2598000000000003 12.2178000000000004
  1.2758499999999999 16.7534999999999989 19.7951000000000015
  8.8531300000000002 16.7539000000000016 19.7952000000000012
  1.2755900000000000 15.2599000000000000 12.2179000000000002
  1.2757000000000001 16.7535999999999987 12.2178000000000004
  8.8533100000000005 15.2603000000000009 19.7956000000000003
  1.2759300000000000 15.2599999999999998 19.7951000000000015
  8.8531700000000004 16.7533999999999992 12.2178000000000004
  8.8528900000000004 12.2185000000000006 15.2599999999999998
  1.2758100000000001 19.7954000000000008 16.7533999999999992
  1.2758300000000000 12.2179000000000002 16.7534999999999989
  8.8531800000000000 19.7956000000000003 15.2597000000000005
  8.8531200000000005 19.7958999999999996 16.7532999999999994
  1.2756400000000001 12.2180000000000000 15.2598000000000003
  1.2758100000000001 19.7953000000000010 15.2597000000000005
  8.8528699999999994 12.2187000000000001 16.7534999999999989
 17.9525000000000006  1.3744200000000000  1.3746100000000001
 14.0607000000000006  8.7539800000000003  8.7537599999999998
 14.0603999999999996  8.7533700000000003  1.3746300000000000
 17.9524000000000008  1.3742300000000001  8.7542200000000001
 14.0604999999999993  1.3743900000000000  8.7541700000000002
 17.9523000000000010  8.7536900000000006  1.3747400000000001
 17.9525000000000006  8.7538000000000000  8.7538400000000003
 14.0607000000000006  1.3743500000000000  1.3749300000000000
 19.6960000000000015  3.1182699999999999  1.3748700000000000
 12.3170000000000002  7.0102599999999997  8.7539300000000004
 19.6959000000000017  7.0099299999999998  8.7537900000000004
 12.3168000000000006  3.1178300000000001  1.3747600000000000
 12.3165999999999993  7.0097100000000001  1.3743700000000001
 19.6954999999999991  3.1181899999999998  8.7536199999999997
 12.3168000000000006  3.1183000000000001  8.7542200000000001
 19.6961000000000013  7.0101300000000002  1.3747700000000000
 19.6961000000000013  1.3744000000000001  3.1183399999999999
 12.3170000000000002  8.7537400000000005  7.0101000000000004
 12.3171999999999997  1.3747700000000000  7.0103200000000001
 19.6960000000000015  8.7538199999999993  3.1183999999999998
 19.6961000000000013  8.7537800000000008  7.0102099999999998
 12.3170000000000002  1.3741500000000000  3.1185299999999998
 12.3169000000000004  8.7532499999999995  3.1182300000000001
 19.6961000000000013  1.3743600000000000  7.0103299999999997
  7.0102500000000001 12.3170000000000002 12.3170999999999999
  3.1183299999999998 19.6964000000000006 19.6962000000000010
  3.1185600000000000 19.6964000000000006 12.3169000000000004
  7.0105199999999996 12.3175000000000008 19.6963000000000008
  3.1185900000000002 12.3171999999999997 19.6963000000000008
  7.0103600000000004 19.6963000000000008 12.3170000000000002
  7.0102300000000000 19.6966999999999999 19.6961000000000013
  3.1184599999999998 12.3172999999999995 12.3171999999999997
  8.7539200000000008 14.0607000000000006 12.3170000000000002
  1.3748600000000000 17.9526000000000003 19.6960000000000015
  8.7539400000000001 17.9529999999999994 19.6960000000000015
  1.3747600000000000 14.0608000000000004 12.3169000000000004
  1.3749000000000000 17.9527000000000001 12.3168000000000006
  8.7543699999999998 14.0611999999999995 19.6964000000000006
  1.3750199999999999 14.0608000000000004 19.6961000000000013
  8.7540700000000005 17.9526000000000003 12.3168000000000006
  8.7538000000000000 12.3171999999999997 14.0608000000000004
  1.3747000000000000 19.6964000000000006 17.9525000000000006
  1.3748199999999999 12.3170000000000002 17.9526000000000003
  8.7539899999999999 19.6965000000000003 14.0606000000000009
  8.7540800000000001 19.6968999999999994 17.9525000000000006
  1.3747400000000001 12.3170000000000002 14.0607000000000006
  1.3749000000000000 19.6964000000000006 14.0606000000000009
  8.7538800000000005 12.3178000000000001 17.9526000000000003
 20.3497999999999983  0.7216220000000000  0.7208500000000000
 11.6636000000000006  9.4073600000000006  9.4072300000000002
 11.6631999999999998  9.4073499999999992  0.7217160000000000
 20.3497999999999983  0.7220020000000000  9.4080600000000008
 11.6633999999999993  0.7204690000000000  9.4067399999999992
 20.3497999999999983  9.4069699999999994  0.7213610000000000
 20.3491000000000000  9.4072399999999998  9.4074299999999997
 11.6637000000000004  0.7210360000000000  0.7210700000000000
  9.4071800000000003 11.6635000000000009 11.6638000000000002
  0.7211120000000000 20.3492999999999995 20.3500000000000014
  0.7213570000000000 20.3491999999999997 11.6630000000000003
  9.4078400000000002 11.6636000000000006 20.3490000000000002
  0.7211880000000001 11.6640999999999995 20.3497999999999983
  9.4072899999999997 20.3504000000000005 11.6640999999999995
  9.4072999999999993 20.3497999999999983 20.3500000000000014
  0.7219480000000000 11.6635000000000009 11.6631999999999998
