&CONTROL
   calculation      = 'relax'
   restart_mode     = 'from_scratch'
   nstep            = 1000
   tprnfor          = .true.
   etot_conv_thr    = 0.0001
   forc_conv_thr    = 0.001
/
&SYSTEM
   tot_magnetization = 0
   ecutwfc          = 50
   ecutrho          = 400
   occupations      = 'smearing'
   degauss          = 0.0001
   smearing         = 'gaussian'
   nspin            = 2
   input_dft        = 'pbe'
   ntyp             = 3
   nat              = 280
   ibrav            = 0
/
&ELECTRONS
   electron_maxstep = 100
   scf_must_converge = .false.
   conv_thr         = 1e-06
   mixing_mode      = 'plain'
   mixing_beta      = 0.3
   diagonalization  = 'david'
/
&IONS
   ion_dynamics     = 'bfgs'
   bfgs_ndim        = 1
/
&CELL
/
&FCP
/
&RISM
/
ATOMIC_SPECIES
C  12.011 C.pbe-n-kjpaw_psl.1.0.0.UPF
O  15.999 O.pbe-n-kjpaw_psl.0.1.UPF
H  1.008 H.pbe-rrkjus_psl.1.0.0.UPF

K_POINTS gamma

CELL_PARAMETERS angstrom
7.09700000000000 0.00000000000000 0.00000000000000
0.00000000000000 7.09700000000000 0.00000000000000
0.00000000000000 0.00000000000000 24.58800000000000

ATOMIC_POSITIONS angstrom
C  4.6470000000 5.2320000000 6.4540000000  
C  3.3390000000 1.6320000000 13.3190000000  
C  3.3880000000 5.2110000000 8.6060000000  
C  2.1630000000 5.2320000000 6.4540000000  
C  4.6510000000 1.5810000000 18.1330000000  
C  3.3380000000 5.1820000000 11.2690000000  
C  3.3910000000 1.6020000000 15.9810000000  
C  2.1660000000 1.5810000000 18.1340000000  
C  3.3380000000 3.9390000000 11.9860000000  
C  6.9540000000 5.2320000000 5.1220000000  
C  3.3650000000 5.1940000000 9.8340000000  
C  3.3380000000 6.4230000000 11.9870000000  
C  -0.0740000000 3.9380000000 0.3070000000  
C  3.4040000000 5.2320000000 7.1710000000  
C  -0.1030000000 5.1940000000 2.4590000000  
C  -0.0740000000 6.4230000000 0.3070000000  
C  -0.0740000000 2.8750000000 24.2800000000  
C  3.4080000000 1.5810000000 17.4160000000  
C  -0.1000000000 1.6190000000 22.1290000000  
C  -0.0740000000 0.3900000000 24.2810000000  
C  3.3380000000 2.8750000000 12.6020000000  
C  -0.1400000000 1.5810000000 19.4660000000  
C  3.3670000000 1.6190000000 14.7530000000  
C  3.3380000000 0.3900000000 12.6010000000  
C  5.7140000000 1.5810000000 18.7480000000  
C  -0.0750000000 5.1810000000 1.0250000000  
C  -0.1230000000 1.6020000000 20.9000000000  
C  1.1020000000 1.5810000000 18.7480000000  
C  5.7110000000 5.2320000000 5.8390000000  
C  -0.0730000000 1.6310000000 23.5630000000  
C  -0.1270000000 5.2110000000 3.6880000000  
C  1.0980000000 5.2320000000 5.8400000000  
C  4.6470000000 5.2320000000 31.0420000000  
C  3.3390000000 1.6320000000 37.9070000000  
C  3.3880000000 5.2110000000 33.1940000000  
C  2.1630000000 5.2320000000 31.0420000000  
C  4.6510000000 1.5810000000 42.7210000000  
C  3.3380000000 5.1820000000 35.8570000000  
C  3.3910000000 1.6020000000 40.5690000000  
C  2.1660000000 1.5810000000 42.7220000000  
C  3.3380000000 3.9390000000 36.5740000000  
C  6.9540000000 5.2320000000 29.7100000000  
C  3.3650000000 5.1940000000 34.4220000000  
C  3.3380000000 6.4230000000 36.5750000000  
C  -0.0740000000 3.9380000000 24.8950000000  
C  3.4040000000 5.2320000000 31.7590000000  
C  -0.1030000000 5.1940000000 27.0470000000  
C  -0.0740000000 6.4230000000 24.8950000000  
C  -0.0740000000 2.8750000000 48.8680000000  
C  3.4080000000 1.5810000000 42.0040000000  
C  -0.1000000000 1.6190000000 46.7170000000  
C  -0.0740000000 0.3900000000 48.8690000000  
C  3.3380000000 2.8750000000 37.1900000000  
C  -0.1400000000 1.5810000000 44.0540000000  
C  3.3670000000 1.6190000000 39.3410000000  
C  3.3380000000 0.3900000000 37.1890000000  
C  5.7140000000 1.5810000000 43.3360000000  
C  -0.0750000000 5.1810000000 25.6130000000  
C  -0.1230000000 1.6020000000 45.4880000000  
C  1.1020000000 1.5810000000 43.3360000000  
C  5.7110000000 5.2320000000 30.4270000000  
C  -0.0730000000 1.6310000000 48.1510000000  
C  -0.1270000000 5.2110000000 28.2760000000  
C  1.0980000000 5.2320000000 30.4280000000  
C  4.6470000000 12.3290000000 6.4540000000  
C  3.3390000000 8.7290000000 13.3190000000  
C  3.3880000000 12.3080000000 8.6060000000  
C  2.1630000000 12.3290000000 6.4540000000  
C  4.6510000000 8.6780000000 18.1330000000  
C  3.3380000000 12.2790000000 11.2690000000  
C  3.3910000000 8.6990000000 15.9810000000  
C  2.1660000000 8.6780000000 18.1340000000  
C  3.3380000000 11.0360000000 11.9860000000  
C  6.9540000000 12.3290000000 5.1220000000  
C  3.3650000000 12.2910000000 9.8340000000  
C  3.3380000000 13.5200000000 11.9870000000  
C  -0.0740000000 11.0350000000 0.3070000000  
C  3.4040000000 12.3290000000 7.1710000000  
C  -0.1030000000 12.2910000000 2.4590000000  
C  -0.0740000000 13.5200000000 0.3070000000  
C  -0.0740000000 9.9720000000 24.2800000000  
C  3.4080000000 8.6780000000 17.4160000000  
C  -0.1000000000 8.7160000000 22.1290000000  
C  -0.0740000000 7.4870000000 24.2810000000  
C  3.3380000000 9.9720000000 12.6020000000  
C  -0.1400000000 8.6780000000 19.4660000000  
C  3.3670000000 8.7160000000 14.7530000000  
C  3.3380000000 7.4870000000 12.6010000000  
C  5.7140000000 8.6780000000 18.7480000000  
C  -0.0750000000 12.2780000000 1.0250000000  
C  -0.1230000000 8.6990000000 20.9000000000  
C  1.1020000000 8.6780000000 18.7480000000  
C  5.7110000000 12.3290000000 5.8390000000  
C  -0.0730000000 8.7280000000 23.5630000000  
C  -0.1270000000 12.3080000000 3.6880000000  
C  1.0980000000 12.3290000000 5.8400000000  
C  4.6470000000 12.3290000000 31.0420000000  
C  3.3390000000 8.7290000000 37.9070000000  
C  3.3880000000 12.3080000000 33.1940000000  
C  2.1630000000 12.3290000000 31.0420000000  
C  4.6510000000 8.6780000000 42.7210000000  
C  3.3380000000 12.2790000000 35.8570000000  
C  3.3910000000 8.6990000000 40.5690000000  
C  2.1660000000 8.6780000000 42.7220000000  
C  3.3380000000 11.0360000000 36.5740000000  
C  6.9540000000 12.3290000000 29.7100000000  
C  3.3650000000 12.2910000000 34.4220000000  
C  3.3380000000 13.5200000000 36.5750000000  
C  -0.0740000000 11.0350000000 24.8950000000  
C  3.4040000000 12.3290000000 31.7590000000  
C  -0.1030000000 12.2910000000 27.0470000000  
C  -0.0740000000 13.5200000000 24.8950000000  
C  -0.0740000000 9.9720000000 48.8680000000  
C  3.4080000000 8.6780000000 42.0040000000  
C  -0.1000000000 8.7160000000 46.7170000000  
C  -0.0740000000 7.4870000000 48.8690000000  
C  3.3380000000 9.9720000000 37.1900000000  
C  -0.1400000000 8.6780000000 44.0540000000  
C  3.3670000000 8.7160000000 39.3410000000  
C  3.3380000000 7.4870000000 37.1890000000  
C  5.7140000000 8.6780000000 43.3360000000  
C  -0.0750000000 12.2780000000 25.6130000000  
C  -0.1230000000 8.6990000000 45.4880000000  
C  1.1020000000 8.6780000000 43.3360000000  
C  5.7110000000 12.3290000000 30.4270000000  
C  -0.0730000000 8.7280000000 48.1510000000  
C  -0.1270000000 12.3080000000 28.2760000000  
C  1.0980000000 12.3290000000 30.4280000000  
C  11.7440000000 5.2320000000 6.4540000000  
C  10.4360000000 1.6320000000 13.3190000000  
C  10.4850000000 5.2110000000 8.6060000000  
C  9.2600000000 5.2320000000 6.4540000000  
C  11.7480000000 1.5810000000 18.1330000000  
C  10.4350000000 5.1820000000 11.2690000000  
C  10.4880000000 1.6020000000 15.9810000000  
C  9.2630000000 1.5810000000 18.1340000000  
C  10.4350000000 3.9390000000 11.9860000000  
C  14.0510000000 5.2320000000 5.1220000000  
C  10.4620000000 5.1940000000 9.8340000000  
C  10.4350000000 6.4230000000 11.9870000000  
C  7.0230000000 3.9380000000 0.3070000000  
C  10.5010000000 5.2320000000 7.1710000000  
C  6.9940000000 5.1940000000 2.4590000000  
C  7.0230000000 6.4230000000 0.3070000000  
C  7.0230000000 2.8750000000 24.2800000000  
C  10.5050000000 1.5810000000 17.4160000000  
C  6.9970000000 1.6190000000 22.1290000000  
C  7.0230000000 0.3900000000 24.2810000000  
C  10.4350000000 2.8750000000 12.6020000000  
C  6.9570000000 1.5810000000 19.4660000000  
C  10.4640000000 1.6190000000 14.7530000000  
C  10.4350000000 0.3900000000 12.6010000000  
C  12.8110000000 1.5810000000 18.7480000000  
C  7.0220000000 5.1810000000 1.0250000000  
C  6.9740000000 1.6020000000 20.9000000000  
C  8.1990000000 1.5810000000 18.7480000000  
C  12.8080000000 5.2320000000 5.8390000000  
C  7.0240000000 1.6310000000 23.5630000000  
C  6.9700000000 5.2110000000 3.6880000000  
C  8.1950000000 5.2320000000 5.8400000000  
C  11.7440000000 5.2320000000 31.0420000000  
C  10.4360000000 1.6320000000 37.9070000000  
C  10.4850000000 5.2110000000 33.1940000000  
C  9.2600000000 5.2320000000 31.0420000000  
C  11.7480000000 1.5810000000 42.7210000000  
C  10.4350000000 5.1820000000 35.8570000000  
C  10.4880000000 1.6020000000 40.5690000000  
C  9.2630000000 1.5810000000 42.7220000000  
C  10.4350000000 3.9390000000 36.5740000000  
C  14.0510000000 5.2320000000 29.7100000000  
C  10.4620000000 5.1940000000 34.4220000000  
C  10.4350000000 6.4230000000 36.5750000000  
C  7.0230000000 3.9380000000 24.8950000000  
C  10.5010000000 5.2320000000 31.7590000000  
C  6.9940000000 5.1940000000 27.0470000000  
C  7.0230000000 6.4230000000 24.8950000000  
C  7.0230000000 2.8750000000 48.8680000000  
C  10.5050000000 1.5810000000 42.0040000000  
C  6.9970000000 1.6190000000 46.7170000000  
C  7.0230000000 0.3900000000 48.8690000000  
C  10.4350000000 2.8750000000 37.1900000000  
C  6.9570000000 1.5810000000 44.0540000000  
C  10.4640000000 1.6190000000 39.3410000000  
C  10.4350000000 0.3900000000 37.1890000000  
C  12.8110000000 1.5810000000 43.3360000000  
C  7.0220000000 5.1810000000 25.6130000000  
C  6.9740000000 1.6020000000 45.4880000000  
C  8.1990000000 1.5810000000 43.3360000000  
C  12.8080000000 5.2320000000 30.4270000000  
C  7.0240000000 1.6310000000 48.1510000000  
C  6.9700000000 5.2110000000 28.2760000000  
C  8.1950000000 5.2320000000 30.4280000000  
C  11.7440000000 12.3290000000 6.4540000000  
C  10.4360000000 8.7290000000 13.3190000000  
C  10.4850000000 12.3080000000 8.6060000000  
C  9.2600000000 12.3290000000 6.4540000000  
C  11.7480000000 8.6780000000 18.1330000000  
C  10.4350000000 12.2790000000 11.2690000000  
C  10.4880000000 8.6990000000 15.9810000000  
C  9.2630000000 8.6780000000 18.1340000000  
C  10.4350000000 11.0360000000 11.9860000000  
C  14.0510000000 12.3290000000 5.1220000000  
C  10.4620000000 12.2910000000 9.8340000000  
C  10.4350000000 13.5200000000 11.9870000000  
C  7.0230000000 11.0350000000 0.3070000000  
C  10.5010000000 12.3290000000 7.1710000000  
C  6.9940000000 12.2910000000 2.4590000000  
C  7.0230000000 13.5200000000 0.3070000000  
C  7.0230000000 9.9720000000 24.2800000000  
C  10.5050000000 8.6780000000 17.4160000000  
C  6.9970000000 8.7160000000 22.1290000000  
C  7.0230000000 7.4870000000 24.2810000000  
C  10.4350000000 9.9720000000 12.6020000000  
C  6.9570000000 8.6780000000 19.4660000000  
C  10.4640000000 8.7160000000 14.7530000000  
C  10.4350000000 7.4870000000 12.6010000000  
C  12.8110000000 8.6780000000 18.7480000000  
C  7.0220000000 12.2780000000 1.0250000000  
C  6.9740000000 8.6990000000 20.9000000000  
C  8.1990000000 8.6780000000 18.7480000000  
C  12.8080000000 12.3290000000 5.8390000000  
C  7.0240000000 8.7280000000 23.5630000000  
C  6.9700000000 12.3080000000 3.6880000000  
C  8.1950000000 12.3290000000 5.8400000000  
C  11.7440000000 12.3290000000 31.0420000000  
C  10.4360000000 8.7290000000 37.9070000000  
C  10.4850000000 12.3080000000 33.1940000000  
C  9.2600000000 12.3290000000 31.0420000000  
C  11.7480000000 8.6780000000 42.7210000000  
C  10.4350000000 12.2790000000 35.8570000000  
C  10.4880000000 8.6990000000 40.5690000000  
C  9.2630000000 8.6780000000 42.7220000000  
C  10.4350000000 11.0360000000 36.5740000000  
C  14.0510000000 12.3290000000 29.7100000000  
C  10.4620000000 12.2910000000 34.4220000000  
C  10.4350000000 13.5200000000 36.5750000000  
C  7.0230000000 11.0350000000 24.8950000000  
C  10.5010000000 12.3290000000 31.7590000000  
C  6.9940000000 12.2910000000 27.0470000000  
C  7.0230000000 13.5200000000 24.8950000000  
C  7.0230000000 9.9720000000 48.8680000000  
C  10.5050000000 8.6780000000 42.0040000000  
C  6.9970000000 8.7160000000 46.7170000000  
C  7.0230000000 7.4870000000 48.8690000000  
C  10.4350000000 9.9720000000 37.1900000000  
C  6.9570000000 8.6780000000 44.0540000000  
C  10.4640000000 8.7160000000 39.3410000000  
C  10.4350000000 7.4870000000 37.1890000000  
C  12.8110000000 8.6780000000 43.3360000000  
C  7.0220000000 12.2780000000 25.6130000000  
C  6.9740000000 8.6990000000 45.4880000000  
C  8.1990000000 8.6780000000 43.3360000000  
C  12.8080000000 12.3290000000 30.4270000000  
C  7.0240000000 8.7280000000 48.1510000000  
C  6.9700000000 12.3080000000 28.2760000000  
C  8.1950000000 12.3290000000 30.4280000000  
O  6.9540000000 3.8820000000 5.1220000000  
O  7.8220000000 3.7600000000 6.3600000000  
O  6.9540000000 3.8820000000 29.7100000000  
O  7.8220000000 3.7600000000 30.9480000000  
O  6.9540000000 10.9790000000 5.1220000000  
O  7.8220000000 10.8570000000 6.3600000000  
O  6.9540000000 10.9790000000 29.7100000000  
O  7.8220000000 10.8570000000 30.9480000000  
O  14.0510000000 3.8820000000 5.1220000000  
O  14.9190000000 3.7600000000 6.3600000000  
O  14.0510000000 3.8820000000 29.7100000000  
O  14.9190000000 3.7600000000 30.9480000000  
O  14.0510000000 10.9790000000 5.1220000000  
O  14.9190000000 10.8570000000 6.3600000000  
O  14.0510000000 10.9790000000 29.7100000000  
O  14.9190000000 10.8570000000 30.9480000000  
H  7.0440000000 3.7860000000 6.9360000000  
H  7.0440000000 3.7860000000 31.5240000000  
H  7.0440000000 10.8830000000 6.9360000000  
H  7.0440000000 10.8830000000 31.5240000000  
H  14.1410000000 3.7860000000 6.9360000000  
H  14.1410000000 3.7860000000 31.5240000000  
H  14.1410000000 10.8830000000 6.9360000000  
H  14.1410000000 10.8830000000 31.5240000000  

