1   
      1.000000000000
     18.171680450439        0.000000000000        0.000000000000
      0.000000000000       18.171680450439        0.000000000000
      0.000000000000        0.000000000000       18.171680450439
C
128 
Direct
      0.179136425257       0.179136425257       0.178918510675 
      0.816743433475       0.816743433475       0.816748857498 
      0.816627860069       0.816627860069       0.179239898920 
      0.179110571742       0.179110571742       0.816380202770 
      0.816501259804       0.179121568799       0.816688358784 
      0.179251998663       0.816627860069       0.179221719503 
      0.179121568799       0.816501259804       0.816688358784 
      0.816627860069       0.179251998663       0.179221719503 
      0.679491341114       0.679491341114       0.679128170013 
      0.316686183214       0.316686183214       0.315804570913 
      0.316732943058       0.316732943058       0.679838061333 
      0.679177701473       0.679177701473       0.316512852907 
      0.316550254822       0.679238259792       0.316589891911 
      0.679139137268       0.316258609295       0.679122686386 
      0.679238259792       0.316550254822       0.316589891911 
      0.316258609295       0.679139137268       0.679122686386 
      0.229045957327       0.229045957327       0.228668451309 
      0.766819536686       0.766819536686       0.767144262791 
      0.766891121864       0.766891121864       0.229218199849 
      0.228991478682       0.228991478682       0.766962647438 
      0.766637980938       0.229063004255       0.767100214958 
      0.229165926576       0.767050683498       0.229145020247 
      0.229063004255       0.766637980938       0.767100214958 
      0.767050683498       0.229165926576       0.229145020247 
      0.729299604893       0.729299604893       0.728908896446 
      0.266652822495       0.266652822495       0.266694664955 
      0.266650080681       0.266650080681       0.729040980339 
      0.728936433792       0.728936433792       0.266595602036 
      0.266655594110       0.728782355785       0.266691893339 
      0.729134559631       0.266535073519       0.728793323040 
      0.728782355785       0.266655594110       0.266691893339 
      0.266535073519       0.729134559631       0.728793323040 
      0.038449663669       0.215847402811       0.215995430946 
      0.957401812077       0.780048906803       0.779900372028 
      0.957363307476       0.779933393002       0.215785771608 
      0.038670063019       0.215922802687       0.779955387115 
      0.957462370396       0.215748906136       0.779922366142 
      0.038479819894       0.779977381229       0.215872719884 
      0.038442123681       0.780010402203       0.780004918575 
      0.957352280617       0.215887561440       0.215795680881 
      0.215847402811       0.038449663669       0.215995430946 
      0.780048906803       0.957401812077       0.779900372028 
      0.215748906136       0.957462370396       0.779922366142 
      0.779977381229       0.038479819894       0.215872719884 
      0.779933393002       0.957363307476       0.215785771608 
      0.215922802687       0.038670063019       0.779955387115 
      0.780010402203       0.038442123681       0.780004918575 
      0.215887561440       0.957352280617       0.215795680881 
      0.215957462788       0.215957462788       0.038526542485 
      0.779988408089       0.779988408089       0.957451403141 
      0.780158996582       0.215866118670       0.957423865795 
      0.215757697821       0.779812276363       0.038498587906 
      0.215866118670       0.780158996582       0.957423865795 
      0.779812276363       0.215757697821       0.038498587906 
      0.779856324196       0.779856324196       0.038559503853 
      0.215910688043       0.215910688043       0.957511842251 
      0.538472473621       0.715718090534       0.715932667255 
      0.457472264767       0.279916852713       0.279958128929 
      0.457418352365       0.279894858599       0.715916216373 
      0.538464188576       0.715932667255       0.280028045177 
      0.457352280617       0.715844631195       0.279942721128 
      0.538413643837       0.280023097992       0.715883135796 
      0.538538515568       0.279944926500       0.279972463846 
      0.457158058882       0.715833663940       0.715833663940 
      0.715718090534       0.538472473621       0.715932667255 
      0.279916852713       0.457472264767       0.279958128929 
      0.715844631195       0.457352280617       0.279942721128 
      0.280023097992       0.538413643837       0.715883135796 
      0.279894858599       0.457418352365       0.715916216373 
      0.715932667255       0.538464188576       0.280028045177 
      0.279944926500       0.538538515568       0.279972463846 
      0.715833663940       0.457158058882       0.715833663940 
      0.715795099735       0.715795099735       0.538142859936 
      0.280099570751       0.280099570751       0.457448601723 
      0.280004918575       0.716015219688       0.457256555557 
      0.715773105621       0.279975742102       0.538306891918 
      0.716015219688       0.280004918575       0.457256555557 
      0.279975742102       0.715773105621       0.538306891918 
      0.279909729958       0.279909729958       0.538950145245 
      0.716048240662       0.716048240662       0.457040280104 
      0.100490979850       0.199397623539       0.199308469892 
      0.895327210426       0.796569168568       0.796492099762 
      0.895327210426       0.796569168568       0.199233636260 
      0.100651122630       0.199080094695       0.796442568302 
      0.895420730114       0.199326097965       0.796398580074 
      0.100544363260       0.796492099762       0.199378922582 
      0.100566923618       0.796420514584       0.796563684940 
      0.895349264145       0.199214369059       0.199122473598 
      0.199397623539       0.100490979850       0.199308469892 
      0.796569168568       0.895327210426       0.796492099762 
      0.199326097965       0.895420730114       0.796398580074 
      0.796492099762       0.100544363260       0.199378922582 
      0.796569168568       0.895327210426       0.199233636260 
      0.199080094695       0.100651122630       0.796442568302 
      0.796420514584       0.100566923618       0.796563684940 
      0.199214369059       0.895349264145       0.199122473598 
      0.199096053839       0.199096053839       0.100489877164 
      0.796673715115       0.796673715115       0.895475864410 
      0.796558141708       0.199198976159       0.895349264145 
      0.199306279421       0.796442568302       0.100563071668 
      0.199198976159       0.796558141708       0.895349264145 
      0.796442568302       0.199306279421       0.100563071668 
      0.796574652195       0.796574652195       0.100511893630 
      0.199141189456       0.199141189456       0.895563781261 
      0.600604832172       0.699610590935       0.699555575848 
      0.395284861326       0.296544939280       0.296028763056 
      0.395337671041       0.296703428030       0.699517011642 
      0.600478351116       0.699236392975       0.296625852585 
      0.395281553268       0.699351906776       0.296457439661 
      0.600549876690       0.296350151300       0.699313402176 
      0.600533306599       0.296607136726       0.296705633402 
      0.395064175129       0.699484050274       0.699478507042 
      0.699610590935       0.600604832172       0.699555575848 
      0.296544939280       0.395284861326       0.296028763056 
      0.699351906776       0.395281553268       0.296457439661 
      0.296350151300       0.600549876690       0.699313402176 
      0.296703428030       0.395337671041       0.699517011642 
      0.699236392975       0.600478351116       0.296625852585 
      0.296607136726       0.600533306599       0.296705633402 
      0.699484050274       0.395064175129       0.699478507042 
      0.699406981468       0.699406981468       0.600252687931 
      0.296175152063       0.296175152063       0.395350337029 
      0.296538889408       0.699335455894       0.395203948021 
      0.699137330055       0.296423882246       0.600373744965 
      0.699335455894       0.296538889408       0.395203948021 
      0.296423882246       0.699137330055       0.600373744965 
      0.296467900276       0.296467900276       0.600918531418 
      0.699164807796       0.699164807796       0.395150035620 
