&CONTROL
   calculation      = 'relax'
   restart_mode     = 'from_scratch'
   nstep            = 1000
   tprnfor          = .true.
   etot_conv_thr    = 0.0001
   forc_conv_thr    = 0.001
/
&SYSTEM
   tot_magnetization = 0
   ecutwfc          = 50
   ecutrho          = 400
   occupations      = 'smearing'
   degauss          = 0.0001
   smearing         = 'gaussian'
   nspin            = 2
   input_dft        = 'pbe'
   ntyp             = 3
   nat              = 99
   ibrav            = 0
/
&ELECTRONS
   electron_maxstep = 100
   scf_must_converge = .false.
   conv_thr         = 1e-06
   mixing_mode      = 'plain'
   mixing_beta      = 0.3
   diagonalization  = 'david'
/
&IONS
   ion_dynamics     = 'bfgs'
   bfgs_ndim        = 1
/
&CELL
/
&FCP
/
&RISM
/
ATOMIC_SPECIES
C  12.011 C.pbe-n-kjpaw_psl.1.0.0.UPF
O  15.999 O.pbe-n-kjpaw_psl.0.1.UPF
H  1.008 H.pbe-rrkjus_psl.1.0.0.UPF

K_POINTS gamma

CELL_PARAMETERS angstrom
16.52500000000000 0.00000000000000 0.00000000000000
0.00000000000000 16.52600000000000 0.00000000000000
0.00000000000000 0.00000000000000 16.52600000000000

ATOMIC_POSITIONS angstrom
C  1.8130000000 1.8130000000 1.8130000000  
C  14.0840000000 14.0840000000 14.0840000000  
C  14.0840000000 14.0840000000 1.8130000000  
C  1.8130000000 1.8130000000 14.0840000000  
C  14.0840000000 1.8130000000 14.0840000000  
C  1.8130000000 14.0840000000 1.8130000000  
C  1.8130000000 14.0840000000 14.0840000000  
C  14.0840000000 1.8130000000 1.8130000000  
C  10.0760000000 10.0760000000 10.0760000000  
C  5.8210000000 5.8210000000 5.8210000000  
C  5.8210000000 5.8210000000 10.0760000000  
C  10.0760000000 10.0760000000 5.8210000000  
C  5.8210000000 10.0760000000 5.8210000000  
C  10.0760000000 5.8210000000 10.0760000000  
C  10.0760000000 5.8210000000 5.8210000000  
C  5.8210000000 10.0760000000 10.0760000000  
C  3.3880000000 3.3880000000 3.3880000000  
C  12.5090000000 12.5090000000 12.5090000000  
C  12.5090000000 12.5090000000 3.3880000000  
C  3.3880000000 3.3880000000 12.5090000000  
C  12.5090000000 3.3880000000 12.5090000000  
C  3.3880000000 12.5090000000 3.3880000000  
C  3.3880000000 12.5090000000 12.5090000000  
C  12.5090000000 3.3880000000 3.3880000000  
C  11.6510000000 11.6510000000 11.6510000000  
C  4.2460000000 4.2460000000 4.2460000000  
C  4.2460000000 4.2460000000 11.6510000000  
C  11.6510000000 11.6510000000 4.2460000000  
C  4.2460000000 11.6510000000 4.2460000000  
C  11.6510000000 4.2460000000 11.6510000000  
C  11.6510000000 4.2460000000 4.2460000000  
C  4.2460000000 11.6510000000 11.6510000000  
C  0.2840000000 2.0000000000 2.0000000000  
C  15.6130000000 13.8970000000 13.8970000000  
C  15.6130000000 13.8970000000 2.0000000000  
C  0.2840000000 2.0000000000 13.8970000000  
C  15.6130000000 2.0000000000 13.8970000000  
C  0.2840000000 13.8970000000 2.0000000000  
C  0.2840000000 13.8970000000 13.8970000000  
C  15.6130000000 2.0000000000 2.0000000000  
C  2.0000000000 0.2840000000 2.0000000000  
C  13.8970000000 15.6140000000 13.8970000000  
C  2.0000000000 15.6140000000 13.8970000000  
C  13.8970000000 0.2840000000 2.0000000000  
C  13.8970000000 15.6140000000 2.0000000000  
C  2.0000000000 0.2840000000 13.8970000000  
C  13.8970000000 0.2840000000 13.8970000000  
C  2.0000000000 15.6140000000 2.0000000000  
C  2.0000000000 2.0000000000 0.2830000000  
C  13.8970000000 13.8970000000 15.6140000000  
C  13.8970000000 2.0000000000 15.6140000000  
C  2.0000000000 13.8970000000 0.2830000000  
C  2.0000000000 13.8970000000 15.6140000000  
C  13.8970000000 2.0000000000 0.2830000000  
C  13.8970000000 13.8970000000 0.2830000000  
C  2.0000000000 2.0000000000 15.6140000000  
C  8.5460000000 10.2630000000 10.2630000000  
C  7.3510000000 5.6340000000 5.6340000000  
C  7.3510000000 5.6340000000 10.2630000000  
C  8.5470000000 10.2630000000 5.6340000000  
C  7.3510000000 10.2630000000 5.6340000000  
C  8.5460000000 5.6340000000 10.2630000000  
C  8.5470000000 5.6340000000 5.6340000000  
C  7.3510000000 10.2630000000 10.2630000000  
C  10.2630000000 8.5460000000 10.2630000000  
C  5.6340000000 7.3510000000 5.6340000000  
C  10.2630000000 7.3510000000 5.6340000000  
C  5.6340000000 8.5470000000 10.2630000000  
C  5.6340000000 7.3510000000 10.2630000000  
C  10.2630000000 8.5470000000 5.6340000000  
C  5.6340000000 8.5460000000 5.6340000000  
C  10.2630000000 7.3510000000 10.2630000000  
C  10.2630000000 10.2630000000 8.5470000000  
C  5.6340000000 5.6340000000 7.3510000000  
C  5.6340000000 10.2630000000 7.3510000000  
C  10.2630000000 5.6340000000 8.5460000000  
C  10.2630000000 5.6340000000 7.3510000000  
C  5.6340000000 10.2630000000 8.5460000000  
C  5.6340000000 5.6340000000 8.5460000000  
C  10.2630000000 10.2630000000 7.3510000000  
C  2.6890000000 2.6890000000 2.6890000000  
C  13.2080000000 13.2080000000 13.2080000000  
C  13.2080000000 13.2080000000 2.6890000000  
C  2.6890000000 2.6890000000 13.2080000000  
C  13.2080000000 2.6890000000 13.2080000000  
C  2.6890000000 13.2080000000 2.6890000000  
C  2.6890000000 13.2080000000 13.2080000000  
C  13.2080000000 2.6890000000 2.6890000000  
C  10.9520000000 10.9520000000 10.9520000000  
C  4.9450000000 4.9450000000 4.9450000000  
C  4.9450000000 4.9450000000 10.9520000000  
C  10.9520000000 10.9520000000 4.9450000000  
C  4.9450000000 10.9520000000 4.9450000000  
C  10.9520000000 4.9450000000 10.9520000000  
C  10.9520000000 4.9450000000 4.9450000000  
C  4.9450000000 10.9520000000 10.9520000000  
O  2.0000000000 15.6140000000 12.5470000000  
O  3.0860000000 15.9380000000 11.5460000000  
H  3.8690000000 15.8450000000 12.1320000000  

