&CONTROL
   calculation      = 'relax'
   restart_mode     = 'from_scratch'
   nstep            = 1000
   tprnfor          = .true.
   etot_conv_thr    = 0.0001
   forc_conv_thr    = 0.001
/
&SYSTEM
   tot_magnetization = 0
   ecutwfc          = 50
   ecutrho          = 400
   occupations      = 'smearing'
   degauss          = 0.0001
   smearing         = 'gaussian'
   nspin            = 2
   input_dft        = 'pbe'
   ntyp             = 3
   nat              = 58
   ibrav            = 0
/
&ELECTRONS
   electron_maxstep = 100
   scf_must_converge = .false.
   conv_thr         = 1e-06
   mixing_mode      = 'plain'
   mixing_beta      = 0.3
   diagonalization  = 'david'
/
&IONS
   ion_dynamics     = 'bfgs'
   bfgs_ndim        = 1
/
&CELL
/
&FCP
/
&RISM
/
ATOMIC_SPECIES
C  12.011 C.pbe-n-kjpaw_psl.1.0.0.UPF
O  15.999 O.pbe-n-kjpaw_psl.0.1.UPF
H  1.008 H.pbe-rrkjus_psl.1.0.0.UPF

K_POINTS gamma

CELL_PARAMETERS angstrom
32.80800000000000 0.00000000000000 0.00000000000000
0.00000000000000 17.78000000000000 0.00000000000000
0.00000000000000 0.00000000000000 2.47300000000000

ATOMIC_POSITIONS angstrom
C  6.1730000000 -0.3820000000 2.4640000000  
C  27.3730000000 -0.3820000000 2.4640000000  
C  22.5770000000 8.5080000000 2.4640000000  
C  10.9680000000 8.5080000000 2.4640000000  
C  5.3710000000 -0.3820000000 1.2280000000  
C  28.1750000000 -0.3820000000 1.2280000000  
C  21.7750000000 8.5080000000 1.2280000000  
C  11.7710000000 8.5080000000 1.2280000000  
C  3.9730000000 17.3980000000 1.2280000000  
C  29.5720000000 -0.3820000000 1.2280000000  
C  20.3770000000 8.5080000000 1.2280000000  
C  13.1680000000 8.5080000000 1.2280000000  
C  7.0430000000 0.8490000000 2.4640000000  
C  26.5020000000 16.1670000000 2.4640000000  
C  26.5020000000 0.8490000000 2.4640000000  
C  7.0430000000 16.1670000000 2.4640000000  
C  23.4470000000 9.7390000000 2.4640000000  
C  10.0980000000 7.2770000000 2.4640000000  
C  10.0980000000 9.7390000000 2.4640000000  
C  23.4470000000 7.2770000000 2.4640000000  
C  8.3080000000 3.3920000000 2.4640000000  
C  25.2370000000 13.6240000000 2.4640000000  
C  25.2370000000 3.3920000000 2.4640000000  
C  8.3080000000 13.6240000000 2.4640000000  
C  24.7120000000 12.2820000000 2.4640000000  
C  8.8330000000 4.7340000000 2.4640000000  
C  8.8330000000 12.2820000000 2.4640000000  
C  24.7120000000 4.7340000000 2.4640000000  
C  7.3970000000 1.4320000000 1.2280000000  
C  26.1490000000 15.5840000000 1.2280000000  
C  26.1490000000 1.4320000000 1.2280000000  
C  7.3970000000 15.5840000000 1.2280000000  
C  23.8010000000 10.3220000000 1.2280000000  
C  9.7450000000 6.6940000000 1.2280000000  
C  9.7450000000 10.3220000000 1.2280000000  
C  23.8010000000 6.6940000000 1.2280000000  
C  8.0350000000 2.7330000000 1.2280000000  
C  25.5110000000 14.2830000000 1.2280000000  
C  25.5110000000 2.7330000000 1.2280000000  
C  8.0350000000 14.2830000000 1.2280000000  
C  24.4390000000 11.6230000000 1.2280000000  
C  9.1060000000 5.3930000000 1.2280000000  
C  9.1060000000 11.6230000000 1.2280000000  
C  24.4390000000 5.3930000000 1.2280000000  
C  3.2360000000 17.3980000000 2.4640000000  
C  30.3100000000 17.3980000000 2.4640000000  
C  19.6400000000 8.5080000000 2.4640000000  
C  13.9060000000 8.5080000000 2.4640000000  
C  1.8100000000 17.3980000000 2.4640000000  
C  31.7350000000 17.3980000000 2.4640000000  
C  18.2140000000 8.5080000000 2.4640000000  
C  15.3310000000 8.5080000000 2.4640000000  
C  1.0830000000 17.3980000000 1.2280000000  
C  32.4620000000 17.3980000000 1.2280000000  
C  17.4870000000 8.5080000000 1.2280000000  
C  16.0580000000 8.5080000000 1.2280000000  
O  8.7470000000 1.3320000000 1.2280000000  
H  9.7230000000 1.3320000000 1.2280000000  

