1   
      1.000000000000
     16.525121688843        0.000000000000        0.000000000000
      0.000000000000       16.525915145874        0.000000000000
      0.000000000000        0.000000000000       16.526226043701
C
96 
Direct
      0.109738372266       0.109710723162       0.109702602029 
      0.852266073227       0.852249324322       0.852233290672 
      0.852259993553       0.852243244648       0.109697766602 
      0.109739586711       0.109711922705       0.852239370346 
      0.852266073227       0.109712533653       0.852239370346 
      0.109737768769       0.852243244648       0.109700784087 
      0.109738975763       0.852243244648       0.852239370346 
      0.852259993553       0.109708905220       0.109701998532 
      0.609738349915       0.609709084034       0.609703660011 
      0.352263659239       0.352243721485       0.352238297462 
      0.352262437344       0.352245539427       0.609697580338 
      0.609744369984       0.609715104103       0.352241933346 
      0.352264255285       0.609709084034       0.352235883474 
      0.609738349915       0.352243721485       0.609697580338 
      0.609738349915       0.352247953415       0.352235883474 
      0.352262437344       0.609715104103       0.609697580338 
      0.205045998096       0.205025255680       0.205010518432 
      0.756956577301       0.756938397884       0.756924152374 
      0.756956577301       0.756938397884       0.205014139414 
      0.205049008131       0.205027669668       0.756936311722 
      0.756956577301       0.205019205809       0.756924152374 
      0.205042362213       0.756932377815       0.205013528466 
      0.205044791102       0.756932377815       0.756924152374 
      0.756950557232       0.205011948943       0.205020189285 
      0.705047786236       0.705019950867       0.705018818378 
      0.256960898638       0.256930381060       0.256925553083 
      0.256957888603       0.256927400827       0.705006718636 
      0.705047786236       0.705019950867       0.256927371025 
      0.256954848766       0.705026030540       0.256928592920 
      0.705047786236       0.256938874722       0.705012738705 
      0.705047786236       0.256936460733       0.256926149130 
      0.256960302591       0.705026030540       0.705012738705 
      0.017180750147       0.121021434665       0.121012501419 
      0.944822132587       0.840939819813       0.840923964977 
      0.944822132587       0.840933740139       0.121008872986 
      0.017182990909       0.121020227671       0.840923964977 
      0.944822132587       0.121020831168       0.840923964977 
      0.017180509865       0.840939819813       0.121010087430 
      0.017182687297       0.840939819813       0.840930044651 
      0.944822132587       0.121020227671       0.121013104916 
      0.121041774750       0.017157597467       0.121011897922 
      0.840962052345       0.944800913334       0.840930044651 
      0.121043592691       0.944800913334       0.840923964977 
      0.840962052345       0.017155479640       0.121006458998 
      0.840962052345       0.944794893265       0.121005848050 
      0.121044188738       0.017156930640       0.840923964977 
      0.840962052345       0.017158685252       0.840930044651 
      0.121042378247       0.944800913334       0.121011897922 
      0.121036924422       0.121014170349       0.017148198560 
      0.840962052345       0.840939819813       0.944789230824 
      0.840962052345       0.121018417180       0.944789230824 
      0.121038742363       0.840939819813       0.017148682848 
      0.121039353311       0.840939819813       0.944795250893 
      0.840962052345       0.121017806232       0.017147773877 
      0.840962052345       0.840939819813       0.017144447193 
      0.121037535369       0.121013574302       0.944789230824 
      0.517181098461       0.621018588543       0.621006906033 
      0.444821536541       0.340937823057       0.340929031372 
      0.444820314646       0.340936660767       0.621006906033 
      0.517183482647       0.621018588543       0.340930849314 
      0.444822132587       0.621018588543       0.340929627419 
      0.517181634903       0.340935438871       0.621006906033 
      0.517182886600       0.340938448906       0.340928435326 
      0.444819718599       0.621018588543       0.621006906033 
      0.621042311192       0.517155051231       0.621006906033 
      0.340960264206       0.444798350334       0.340929031372 
      0.621042311192       0.444801390171       0.340930849314 
      0.340959042311       0.517158031464       0.621006906033 
      0.340959042311       0.444800794125       0.621006906033 
      0.621042311192       0.517159223557       0.340931415558 
      0.340960264206       0.517156243324       0.340928435326 
      0.621042311192       0.444797754288       0.621006906033 
      0.621042311192       0.621018588543       0.517150163651 
      0.340959042311       0.340937256813       0.444790601730 
      0.340960860252       0.621018588543       0.444788783789 
      0.621042311192       0.340936660767       0.517145872116 
      0.621042311192       0.340937823057       0.444789975882 
      0.340960264206       0.621018588543       0.517144680023 
      0.340959042311       0.340937823057       0.517147064209 
      0.621042311192       0.621018588543       0.444794237614 
      0.162743732333       0.162721395493       0.162709265947 
      0.799255847931       0.799241721630       0.799226641655 
      0.799255847931       0.799235641956       0.162707448006 
      0.162747964263       0.162722617388       0.799232661724 
      0.799261868000       0.162719577551       0.799226641655 
      0.162743732333       0.799235641956       0.162711679935 
      0.162744328380       0.799235641956       0.799232661724 
      0.799255847931       0.162711724639       0.162714704871 
      0.662742435932       0.662716686726       0.662716329098 
      0.299259513617       0.299235463142       0.299228608608 
      0.299257695675       0.299233049154       0.662704229355 
      0.662748515606       0.662722766399       0.299231052399 
      0.299257695675       0.662722766399       0.299229830503 
      0.662742435932       0.299237281084       0.662710249424 
      0.662748515606       0.299240320921       0.299228012562 
      0.299258917570       0.662722766399       0.662710249424 
