1   
      1.000000000000
     13.612658500671        0.000000000000        0.000000000000
      0.000000000000       13.612658500671        0.000000000000
      0.000000000000        0.000000000000       13.612658500671
C 
72 
Direct
      0.490750581026       0.066323630512       0.566004097462 
      0.490007877350       0.140243738890       0.640467822552 
      0.488977223635       0.203350439668       0.704423069954 
     -0.008613086306       0.415054112673       0.565711677074 
      0.989843368530       0.339439183474       0.638567447662 
      0.988205194473       0.274592220783       0.700730144978 
      0.490322291851       0.415021806955       0.916308879852 
      0.489493668079       0.340704917908       0.842149972916 
      0.488701760769       0.277161151171       0.778635561466 
     -0.007372402586       0.067882329226       0.917307972908 
      0.990269422531       0.139660447836       0.840768873692 
      0.988403499126       0.201000422239       0.775138795376 
      0.565981328487       0.490713864565       0.066320106387 
      0.640479564667       0.489948362112       0.140231966972 
      0.704417884350       0.488966941833       0.203348234296 
      0.565722703934      -0.008526255377       0.415054112673 
      0.638521134853       0.989828705788       0.339433342218 
      0.700677931309       0.988168478012       0.274599552155 
      0.916308879852       0.490347296000       0.415012955666 
      0.842091262341       0.489452511072       0.340754151344 
      0.778628230095       0.488767862320       0.277156740427 
      0.917300641537      -0.007358371746       0.067861691117 
      0.840695500374      -0.009579612873       0.139593601227 
      0.775285780430       0.988410890102       0.201129704714 
      0.066359996796       0.565975427628       0.490771144629 
      0.140244469047       0.640465617180       0.489999055862 
      0.203350439668       0.704423069954       0.488997787237 
      0.415113627911       0.565771937370      -0.008576503024 
      0.339461952448       0.638582050800       0.989894807339 
      0.274584114552       0.700729370117       0.988293409348 
      0.415007859468       0.916360318661       0.490327447653 
      0.340799719095       0.842032432556       0.489417999983 
      0.277069330215       0.778694272041       0.488784015179 
      0.067854493856       0.917352080345      -0.007392530795 
      0.139653101563       0.840732157230       0.990291535854 
      0.201081231236       0.775197565556       0.988308012486 
      0.490273833275       0.916301548481       0.415058553219 
      0.489520102739       0.842157304287       0.340696126223 
      0.488701015711       0.778628230095       0.277161151171 
     -0.008540139534       0.565730750561       0.415081322193 
      0.989858090878       0.638577699661       0.339483290911 
      0.988168478012       0.700752913952       0.274631142616 
      0.490786582232       0.565997481346       0.066339872777 
      0.490010082722       0.640477418900       0.140245199203 
      0.488977968693       0.704428911209       0.203348234296 
     -0.007303474005       0.917293310165       0.067888058722 
      0.990350306034       0.840629339218       0.139483407140 
      0.988440334797       0.775271058083       0.201115742326 
      0.415001958609       0.490376681089       0.916338264942 
      0.340662330389       0.489599436522       0.842179358006 
      0.277143508196       0.488761991262       0.778642892838 
      0.415075421333      -0.008524345234       0.565788090229 
      0.339466363192       0.989872753620       0.638586461544 
      0.274612039328       0.988212525845       0.700736761093 
      0.066341854632       0.490720450878       0.565990090370 
      0.140244469047       0.489916771650       0.640452384949 
      0.203364402056       0.488889068365       0.704384803772 
      0.067859776318      -0.007343312260       0.917315304279 
      0.139628857374       0.990232765675       0.840732157230 
      0.200998947024       0.988388895988       0.775146126747 
      0.916330873966       0.415034294128       0.490334779024 
      0.842098534107       0.340725481510       0.489405483007 
      0.778664946556       0.277119278908       0.488703966141 
      0.565702855587       0.415060013533      -0.008598835208 
      0.638568103313       0.339457571507       0.989836096764 
      0.700752913952       0.274622321129       0.988197863102 
      0.566006302834       0.066306807101       0.490715324879 
      0.640514850616       0.140212878585       0.489978492260 
      0.704470753670       0.203309297562       0.488994121552 
      0.917307972908       0.067828483880      -0.007315007504 
      0.840739548206       0.139656037092      -0.009682532400 
      0.775168240070       0.201054051518       0.988410890102 
